LAMMPS (22 Jul 2025 - Update 5)
  using 4 OpenMP thread(s) per MPI task
# Calibration: unclampe energy minimization with in-plane box relaxation.
# Purpose: find this poetential's true equilibrium bond length / box size.

units metal
dimension 3
boundary p p f
atom_style molecular
read_data sheet.data
Reading data file ...
  orthogonal box = (1.33628 -35 -12.5) to (71.33628 35 12.5)
  1 by 1 by 1 MPI processor grid
  reading atoms ...
  966 atoms
Finding 1-2 1-3 1-4 neighbors ...
  special bond factors lj:    0        0        0       
  special bond factors coul:  0        0        0       
     0 = max # of 1-2 neighbors
     0 = max # of 1-3 neighbors
     0 = max # of 1-4 neighbors
     1 = max # of special neighbors
  special bonds CPU = 0.001 seconds
  read_data CPU = 0.019 seconds

pair_style airebo 6.8
pair_coeff * * CH_modified.airebo C
Reading airebo potential file CH_modified.airebo with DATE: 2011-10-25


thermo 50
thermo_style custom step pe press lx lz

fix relax all box/relax x 0.0 y 0.0 vmax 0.001

min_style cg
minimize 1.0e-10 1.0e-10 10000 100000
Neighbor list info ...
  update: every = 1 steps, delay = 0 steps, check = yes
  max neighbors/atom: 2000, page size: 100000
  master list distance cutoff = 25.12
  ghost atom cutoff = 25.12
  binsize = 12.56, bins = 6 6 2
  1 neighbor lists, perpetual/occasional/extra = 1 0 0
  (1) pair airebo, perpetual
      attributes: full, newton on, ghost
      pair build: full/bin/ghost
      stencil: full/ghost/bin/3d
      bin: standard
WARNING: Energy due to 3 extra global DOFs will be included in minimizer energies
 (src/min.cpp:224)
Per MPI rank memory allocation (min/avg/max) = 13.63 | 13.63 | 13.63 Mbytes
   Step         PotEng         Press            Lx             Lz      
         0  -6949.1997     -341.90949      70             25           
        50  -6952.1044      19.185146      69.921964      25           
       100  -6952.3262      2.3555687      69.929546      25           
       150  -6952.3612     -4.4004271      69.938248      25           
       200  -6952.3718      2.1032014      69.934945      25           
       250  -6952.3783     -0.44827426     69.937036      25           
       300  -6952.3814     -0.22192094     69.939151      25           
       350  -6952.3863      14.03273       69.936031      25           
       400  -6952.3889     -3.8235741      69.937553      25           
       413  -6952.389      -0.56154021     69.938774      25           
Loop time of 9.72956 on 4 procs for 413 steps with 966 atoms

398.0% CPU use with 1 MPI tasks x 4 OpenMP threads

Minimization stats:
  Stopping criterion = energy tolerance
  Energy initial, next-to-last, final = 
     -6949.19970454975  -6952.38903328693  -6952.38903377082
  Force two-norm initial, final = 116.42651 0.15373666
  Force max component initial, final = 110.37382 0.091203714
  Final line search alpha, max atom move = 0.0079698623 0.00072688104
  Iterations, force evaluations = 413 814

MPI task timing breakdown:
Section |  min time  |  avg time  |  max time  |%varavg| %total
---------------------------------------------------------------
Pair    | 9.6775     | 9.6775     | 9.6775     |   0.0 | 99.47
Bond    | 0.00010841 | 0.00010841 | 0.00010841 |   0.0 |  0.00
Neigh   | 0          | 0          | 0          |   0.0 |  0.00
Comm    | 0.0070555  | 0.0070555  | 0.0070555  |   0.0 |  0.07
Output  | 0.00022334 | 0.00022334 | 0.00022334 |   0.0 |  0.00
Modify  | 0          | 0          | 0          |   0.0 |  0.00
Other   |            | 0.04462    |            |       |  0.46

Nlocal:            966 ave         966 max         966 min
Histogram: 1 0 0 0 0 0 0 0 0 0
Nghost:           1773 ave        1773 max        1773 min
Histogram: 1 0 0 0 0 0 0 0 0 0
Neighs:              0 ave           0 max           0 min
Histogram: 1 0 0 0 0 0 0 0 0 0
FullNghs:       468400 ave      468400 max      468400 min
Histogram: 1 0 0 0 0 0 0 0 0 0

Total # of neighbors = 468400
Ave neighs/atom = 484.88613
Ave special neighs/atom = 0
Neighbor list builds = 0
Dangerous builds = 0

print "Final box: lx = $(lx) lz = $(lz) press = $(press)"
Final box: lx = 69.938774366565397145 lz = 25 press = -0.56154021493937156251
write_dump all custom relaxed.lammpstrj id x y z
Total wall time: 0:00:09
