ITEM: TIMESTEP
2122
ITEM: NUMBER OF ATOMS
966
ITEM: BOX BOUNDS pp ff pp
1.3694033204084362e+00 7.1306196679591793e+01
-1.2500000000000000e+01 1.2500000000000000e+01
-7.8259727166956914e+00 6.2354392716695635e+01
ITEM: ATOMS id x y z
723 15.0071 0 -0.209664
724 15.6896 0 0.950334
769 17.0843 0 1.00893
776 17.8573 0 -0.162146
777 19.2227 0 -0.109302
778 19.9314 0 1.09965
785 21.3066 0 1.13075
792 22.0515 0 -0.0564791
793 23.4167 0 -0.0363819
794 24.1306 0 1.16892
801 25.5041 0 1.18381
808 26.2392 0 -0.00867052
809 27.6044 0 0.00186241
810 28.3223 0 1.20454
817 29.695 0 1.21216
824 30.4244 0 0.0164587
825 31.7895 0 0.0211584
826 32.5107 0 1.22174
833 33.8832 0 1.22478
840 34.6092 0 0.0270426
841 35.9742 0 0.028454
842 36.6985 0 1.22714
849 38.0709 0 1.22575
856 38.7936 0 0.0260172
857 40.1587 0 0.0231248
858 40.8863 0 1.21986
865 42.259 0 1.21514
872 42.9787 0 0.0136245
873 44.3438 0 0.00596271
874 45.0758 0 1.20025
881 46.4488 0 1.1893
888 47.1649 0 -0.0145416
889 48.5301 0 -0.029631
890 49.2692 0 1.16086
897 50.6432 0 1.14063
904 51.3548 0 -0.066144
905 52.7201 0 -0.0976967
906 53.4755 0 1.08404
913 54.8546 0 1.03457
920 55.5749 0 -0.177828
921 56.9501 0 -0.239511
922 57.6407 0 0.95186
725 15.0645 0 2.19884
726 15.6883 0 3.44321
727 15.0546 0 4.67613
728 15.6914 0 5.90857
1 17.7866 0 4.69755
2 17.0975 0 5.92009
39 19.1887 0 4.72861
40 19.8857 0 5.94987
78 21.2867 0 5.97567
770 17.7869 0 2.24574
771 17.0955 0 3.46738
779 19.197 0 2.29389
780 19.891 0 3.51779
787 21.2933 0 3.54997
77 21.9907 0 4.76658
115 23.391 0 4.79016
116 24.0895 0 6.00444
153 26.1952 0 4.81529
154 25.4892 0 6.02186
786 22.0059 0 2.34626
795 23.4079 0 2.36882
796 24.0999 0 3.58544
802 26.2059 0 2.396
803 25.499 0 3.60222
191 27.5937 0 4.82823
192 28.2916 0 6.04016
229 30.394 0 4.84188
230 29.6901 0 6.04929
811 27.6062 0 2.40768
812 28.2991 0 3.6221
818 30.3994 0 2.42203
819 29.6971 0 3.63051
267 31.7918 0 4.84786
268 32.4906 0 6.05854
305 34.5901 0 4.85328
306 33.8888 0 6.06206
343 35.9876 0 4.85453
827 31.799 0 2.42711
828 32.4939 0 3.63992
834 34.5905 0 2.43284
835 33.8915 0 3.64319
843 35.9898 0 2.43417
344 36.688 0 6.06385
381 38.7856 0 4.85259
382 38.0861 0 6.06256
419 40.1833 0 4.84911
420 40.8858 0 6.05733
844 36.6872 0 3.64527
850 38.7812 0 2.43203
851 38.0848 0 3.64394
859 40.1806 0 2.42881
860 40.881 0 3.63832
457 42.9824 0 4.83995
458 42.2842 0 6.05122
495 44.3806 0 4.83094
496 45.0855 0 6.0379
866 42.9728 0 2.41944
867 42.2787 0 3.63295
875 44.3727 0 2.41121
876 45.077 0 3.61871
533 47.1827 0 4.81166
534 46.4846 0 6.02454
571 48.582 0 4.79412
572 49.2879 0 6.00116
610 50.6883 0 5.97903
882 47.1678 0 2.39093
883 46.4754 0 3.60629
891 48.5688 0 2.37462
892 49.2784 0 3.57968
899 50.6786 0 3.55659
609 51.387 0 4.76238
647 52.7884 0 4.73312
648 53.4871 0 5.94695
685 55.5812 0 4.69408
686 54.8889 0 5.9222
898 51.3709 0 2.33797
907 52.7754 0 2.30483
908 53.4851 0 3.51165
914 55.5782 0 2.23921
915 54.8889 0 3.4736
923 56.9945 0 2.20181
924 57.6235 0 3.44089
925 56.9884 0 4.67729
926 57.622 0 5.90883
729 15.056 0 7.13767
730 15.6978 0 8.36413
731 15.0598 0 9.59011
732 15.7054 0 10.8126
733 15.0648 0 12.036
3 17.7895 0 7.14652
4 17.1027 0 8.36958
5 17.7958 0 9.5925
6 17.1094 0 10.815
7 17.803 0 12.0358
41 19.1907 0 7.16604
42 19.8874 0 8.38652
43 19.1961 0 9.605
44 19.8925 0 10.8245
45 19.2028 0 12.0437
80 21.2878 0 8.40563
82 21.2925 0 10.8382
79 21.9858 0 7.19248
81 21.9869 0 9.62254
83 21.9911 0 12.055
117 23.3861 0 7.21322
118 24.086 0 8.42754
119 23.3869 0 9.63938
120 24.087 0 10.854
121 23.3909 0 12.0679
155 26.1885 0 7.23466
156 25.4859 0 8.44368
157 26.1865 0 9.65653
158 25.4868 0 10.8677
159 26.1873 0 12.081
193 27.5877 0 7.24783
194 28.2877 0 8.45949
195 27.5859 0 9.66878
196 28.2868 0 10.8806
197 27.5869 0 12.0916
231 30.3895 0 7.26042
232 29.6867 0 8.46893
233 30.3876 0 9.67981
234 29.6861 0 10.8896
235 30.3872 0 12.1009
269 31.7882 0 7.26694
270 32.4886 0 8.47724
271 31.7866 0 9.6863
272 32.4876 0 10.8969
273 31.7866 0 12.1071
307 34.589 0 7.27193
308 33.8873 0 8.48104
309 34.5884 0 9.69102
310 33.8868 0 10.9007
311 34.588 0 12.1112
345 35.9873 0 7.27327
347 35.9871 0 9.69227
349 35.9872 0 12.1124
346 36.6884 0 8.48269
348 36.6883 0 10.9022
383 38.7876 0 7.27144
384 38.087 0 8.48134
385 38.7886 0 9.69072
386 38.0873 0 10.9009
387 38.7888 0 12.111
421 40.1861 0 7.26781
422 40.8885 0 8.47649
423 40.1876 0 9.68692
424 40.8892 0 10.8966
425 40.1881 0 12.1075
459 42.9875 0 7.25915
460 42.2874 0 8.47016
461 42.9895 0 9.67932
462 42.2884 0 10.8903
463 42.9891 0 12.1007
497 44.3864 0 7.24973
498 45.0892 0 8.45832
499 44.3887 0 9.67004
500 45.0895 0 10.8802
501 44.3885 0 12.0922
535 47.1887 0 7.23249
536 46.4886 0 8.44529
537 47.1897 0 9.65543
538 46.489 0 10.8685
539 47.1874 0 12.0806
573 48.5885 0 7.21542
574 49.2897 0 8.4258
575 48.5895 0 9.64035
576 49.287 0 10.8534
577 48.5871 0 12.0682
612 50.6899 0 8.40717
614 50.687 0 10.8387
611 51.389 0 7.19025
613 51.3858 0 9.62179
615 51.3803 0 12.055
649 52.7898 0 7.16781
650 53.4826 0 8.38547
651 52.786 0 9.60553
652 53.4763 0 10.8245
653 52.7801 0 12.0434
687 55.5763 0 7.14536
688 54.8834 0 8.36978
689 55.5695 0 9.5927
690 54.8763 0 10.8145
691 55.563 0 12.0364
927 56.9817 0 7.13756
928 57.6182 0 8.365
929 56.9739 0 9.58904
930 57.6132 0 10.8136
931 56.9667 0 12.0348
734 15.7124 0 13.2561
735 15.0697 0 14.4776
736 15.7186 0 15.6963
737 15.0742 0 16.9165
8 17.1159 0 13.2571
9 17.81 0 14.4762
10 17.1217 0 15.6964
11 17.8158 0 16.9145
46 19.8988 0 13.2622
47 19.2093 0 14.4812
48 19.9049 0 15.699
49 19.2149 0 16.9177
84 21.2984 0 13.2717
86 21.3043 0 15.7058
85 21.9961 0 14.4884
87 22.0013 0 16.9222
122 24.0903 0 13.2828
123 23.3957 0 14.4979
124 24.0943 0 15.7131
125 23.4007 0 16.9291
160 25.49 0 13.294
161 26.19 0 14.5076
162 25.494 0 15.7217
163 26.193 0 16.9359
198 28.2878 0 13.304
199 27.5895 0 14.5163
200 28.2895 0 15.7293
201 27.5925 0 16.9426
236 29.6873 0 13.312
237 30.3881 0 14.524
238 29.6891 0 15.736
239 30.3895 0 16.9485
274 32.4877 0 13.3183
275 31.7876 0 14.5294
276 32.4885 0 15.741
277 31.7891 0 16.9528
312 33.8871 0 13.3218
313 34.5881 0 14.5327
314 33.888 0 15.744
315 34.5884 0 16.9556
351 35.9875 0 14.5338
353 35.9878 0 16.9566
350 36.6884 0 13.3229
352 36.688 0 15.745
388 38.0878 0 13.3218
389 38.7883 0 14.5326
390 38.0874 0 15.7438
391 38.7872 0 16.9555
426 40.8887 0 13.3182
427 40.1877 0 14.5295
428 40.8874 0 15.741
429 40.1867 0 16.9529
464 42.2881 0 13.3123
465 42.9876 0 14.5239
466 42.287 0 15.7361
467 42.9854 0 16.9486
502 45.0875 0 13.3039
503 44.3871 0 14.5165
504 45.0847 0 15.7294
505 44.3849 0 16.9426
540 46.4871 0 13.2942
541 47.1837 0 14.5077
542 46.4843 0 15.7217
543 47.1798 0 16.9361
578 49.2823 0 13.2828
579 48.5832 0 14.4979
580 49.2773 0 15.7134
581 48.5793 0 16.9289
616 50.682 0 13.2718
618 50.6768 0 15.7054
617 51.3742 0 14.4889
619 51.3686 0 16.9228
654 53.4696 0 13.2626
655 52.7737 0 14.4807
656 53.4634 0 15.6997
657 52.768 0 16.9172
692 54.8692 0 13.2562
693 55.5569 0 14.477
694 54.8628 0 15.6956
695 55.5514 0 16.9155
932 57.6084 0 13.2572
933 56.9602 0 14.4766
934 57.6038 0 15.6975
935 56.9545 0 16.9156
738 15.7238 0 18.1341
739 15.078 0 19.3532
740 15.7281 0 20.5701
741 15.0812 0 21.7883
12 17.1267 0 18.1338
13 17.8207 0 19.3511
14 17.1308 0 20.5698
15 17.8247 0 21.7867
50 19.9102 0 18.1349
51 19.2196 0 19.3531
52 19.9145 0 20.5699
53 19.2235 0 21.7878
88 21.3094 0 18.1395
90 21.3136 0 20.5729
89 22.0058 0 19.3558
91 22.0093 0 21.7891
126 24.0984 0 18.1445
127 23.405 0 19.3606
128 24.1021 0 20.576
129 23.4086 0 21.7922
164 25.4978 0 18.1506
165 26.1961 0 19.3651
166 25.5014 0 20.5803
167 26.1988 0 21.795
202 28.292 0 18.156
203 27.5956 0 19.3701
204 28.2942 0 20.5841
205 27.5983 0 21.7986
240 29.6915 0 18.1613
241 30.3909 0 19.3743
242 29.6937 0 20.5879
243 30.3922 0 21.8014
278 32.4893 0 18.165
279 31.7905 0 19.3776
280 32.4898 0 20.5905
281 31.7918 0 21.8037
316 33.8889 0 18.1675
317 34.5885 0 19.3798
318 33.8894 0 20.5923
319 34.5887 0 21.805
355 35.9881 0 19.3807
357 35.9882 0 21.8055
354 36.6877 0 18.1685
356 36.6875 0 20.593
392 38.0872 0 18.1674
393 38.7865 0 19.3797
394 38.0871 0 20.5922
395 38.7858 0 21.805
430 40.8858 0 18.165
431 40.1861 0 19.3776
432 40.8844 0 20.5905
433 40.1854 0 21.8036
468 42.2854 0 18.1612
469 42.983 0 19.3744
470 42.284 0 20.5877
471 42.9812 0 21.8015
506 45.0815 0 18.1563
507 44.3825 0 19.3699
508 45.0787 0 20.5841
509 44.3807 0 21.7984
544 46.481 0 18.1504
545 47.1759 0 19.3654
546 46.4781 0 20.58
547 47.1728 0 21.7954
582 49.2727 0 18.1449
583 48.5753 0 19.3603
584 49.2687 0 20.5765
585 48.5721 0 21.792
620 50.672 0 18.1392
622 50.6679 0 20.5726
621 51.364 0 19.3564
623 51.3601 0 21.7896
658 53.4583 0 18.1357
659 52.7632 0 19.3526
660 53.454 0 20.5707
661 52.759 0 21.7872
696 54.8572 0 18.1331
697 55.5468 0 19.352
698 54.8528 0 20.5692
699 55.5433 0 21.7874
936 57.5996 0 18.1353
937 56.9496 0 19.3525
938 57.596 0 20.571
939 56.9459 0 21.7878
742 15.7313 0 23.0049
743 15.0832 0 24.2224
744 15.7333 0 25.4389
745 15.0843 0 26.6559
16 17.1339 0 23.0046
17 17.8275 0 24.2213
18 17.1357 0 25.4388
19 17.8287 0 26.6556
54 19.9179 0 23.0046
55 19.2262 0 24.222
56 19.92 0 25.4388
57 19.2274 0 26.6558
92 21.3169 0 23.0062
94 21.3189 0 25.4394
93 22.0119 0 24.2225
95 22.0129 0 26.6559
130 24.1047 0 23.0079
131 23.4109 0 24.224
132 24.1061 0 25.44
133 23.4119 0 26.6562
168 25.504 0 23.0105
169 26.2004 0 24.2257
170 25.5053 0 25.4411
171 26.2009 0 26.6565
206 28.2958 0 23.013
207 27.5997 0 24.2276
208 28.2966 0 25.4422
209 27.6002 0 26.6569
244 29.6952 0 23.0152
245 30.3932 0 24.2291
246 29.696 0 25.4431
247 30.3935 0 26.6572
282 32.4906 0 23.0169
283 31.7928 0 24.2303
284 32.4909 0 25.4439
285 31.7931 0 26.6575
320 33.8901 0 23.0179
321 34.5888 0 24.2309
322 33.8906 0 25.4442
323 34.5889 0 26.6575
359 35.9884 0 24.2312
361 35.9885 0 26.6576
358 36.6872 0 23.0182
360 36.687 0 25.4444
396 38.0868 0 23.0179
397 38.7851 0 24.2311
398 38.0866 0 25.4443
399 38.7849 0 26.6576
434 40.8833 0 23.017
435 40.1847 0 24.2303
436 40.8826 0 25.4439
437 40.1845 0 26.6574
472 42.2829 0 23.0152
473 42.98 0 24.2291
474 42.2822 0 25.443
475 42.9794 0 26.6571
510 45.0766 0 23.013
511 44.3794 0 24.2275
512 45.0755 0 25.4422
513 44.3788 0 26.6568
548 46.476 0 23.0104
549 47.1709 0 24.2259
550 46.4749 0 25.4412
551 47.1701 0 26.6566
586 49.2656 0 23.0082
587 48.5701 0 24.224
588 49.264 0 25.4402
589 48.5692 0 26.6562
624 50.6648 0 23.0059
626 50.6631 0 25.4392
625 51.3575 0 24.2228
627 51.3564 0 26.6559
662 53.4505 0 23.0049
663 52.7564 0 24.2216
664 53.4487 0 25.4389
665 52.7553 0 26.6557
700 54.8493 0 23.0041
701 55.5406 0 24.2217
702 54.8474 0 25.4385
703 55.5393 0 26.6558
940 57.5935 0 23.0057
941 56.9431 0 24.2221
942 57.5914 0 25.4393
943 56.9418 0 26.656
746 15.7338 0 27.8725
747 15.0842 0 29.0891
748 15.7325 0 30.3064
749 15.0821 0 31.5228
20 17.1363 0 27.8726
21 17.8282 0 29.0899
22 17.135 0 30.3067
23 17.8263 0 31.5243
58 19.9203 0 27.8727
59 19.2269 0 29.0895
60 19.9192 0 30.3068
61 19.2251 0 31.5235
96 21.3192 0 27.8725
98 21.3181 0 30.3056
97 22.0125 0 29.0892
99 22.0108 0 31.5226
134 24.1064 0 27.8722
135 23.4116 0 29.0882
136 24.1055 0 30.3044
137 23.41 0 31.5202
172 25.5055 0 27.8718
173 26.2007 0 29.0872
174 25.5047 0 30.3025
175 26.1996 0 31.518
210 28.2968 0 27.8716
211 27.6001 0 29.0863
212 28.2962 0 30.3009
213 27.599 0 31.5154
248 29.6962 0 27.8713
249 30.3934 0 29.0854
250 29.6956 0 30.2994
251 30.3927 0 31.5133
286 32.4911 0 27.871
287 31.793 0 29.0845
288 32.4909 0 30.2981
289 31.7923 0 31.5115
324 33.8907 0 27.8708
325 34.589 0 29.0841
326 33.8905 0 30.2974
327 34.5888 0 31.5105
363 35.9886 0 29.084
365 35.9884 0 31.5102
362 36.6871 0 27.8708
364 36.6871 0 30.2972
400 38.0867 0 27.8709
401 38.785 0 29.0842
402 38.0868 0 30.2975
403 38.7855 0 31.5106
438 40.8825 0 27.8709
439 40.1847 0 29.0846
440 40.8828 0 30.2981
441 40.185 0 31.5116
476 42.2821 0 27.8712
477 42.9796 0 29.0853
478 42.2824 0 30.2994
479 42.9804 0 31.5132
514 45.0754 0 27.8715
515 44.379 0 29.0862
516 45.0759 0 30.3008
517 44.3798 0 31.5154
552 46.4747 0 27.872
553 47.1703 0 29.0873
554 46.4752 0 30.3027
555 47.1716 0 31.5179
590 49.2637 0 27.8723
591 48.5695 0 29.0884
592 49.2647 0 30.3044
593 48.5709 0 31.5205
628 50.6627 0 27.8725
630 50.6637 0 30.3059
629 51.3567 0 29.0891
631 51.3587 0 31.5222
666 53.4482 0 27.8726
667 52.7556 0 29.0897
668 53.4494 0 30.3064
669 52.7577 0 31.5239
704 54.8469 0 27.8728
705 55.5399 0 29.0897
706 54.8481 0 30.3071
707 55.5417 0 31.5238
944 57.5913 0 27.8726
945 56.9423 0 29.0895
946 57.5924 0 30.306
947 56.9443 0 31.5235
750 15.7297 0 32.7406
751 15.0796 0 33.9574
752 15.726 0 35.176
753 15.076 0 36.3931
24 17.1323 0 32.741
25 17.8228 0 33.9592
26 17.1288 0 35.1764
27 17.8184 0 36.3953
62 19.9166 0 32.7412
63 19.2216 0 33.9578
64 19.9124 0 35.1758
65 19.2173 0 36.3928
100 21.3155 0 32.7388
102 21.3116 0 35.172
101 22.0077 0 33.9558
103 22.0036 0 36.3893
138 24.1035 0 32.7364
139 23.4069 0 33.9519
140 24.1003 0 35.1681
141 23.4029 0 36.3835
176 25.5028 0 32.733
177 26.1975 0 33.9484
178 25.4997 0 35.163
179 26.1946 0 36.378
214 28.2949 0 32.7301
215 27.5969 0 33.9443
216 28.2931 0 35.1586
217 27.5941 0 36.3722
252 29.6944 0 32.7269
253 30.3916 0 33.9407
254 29.6926 0 35.1541
255 30.3902 0 36.3672
290 32.4902 0 32.7248
291 31.7912 0 33.9379
292 32.4895 0 35.1508
293 31.7898 0 36.3634
328 33.8898 0 32.7234
329 34.5885 0 33.9362
330 33.8891 0 35.1488
331 34.5884 0 36.361
367 35.9881 0 33.9354
369 35.9879 0 36.3599
366 36.6874 0 32.7229
368 36.6875 0 35.1477
404 38.0869 0 32.7235
405 38.7862 0 33.9362
406 38.0871 0 35.1487
407 38.7867 0 36.3609
442 40.8838 0 32.7247
443 40.1858 0 33.9379
444 40.8851 0 35.1508
445 40.1863 0 36.3634
480 42.2834 0 32.727
481 42.9819 0 33.9406
482 42.2847 0 35.1541
483 42.9841 0 36.3671
518 45.0773 0 32.7298
519 44.3814 0 33.9444
520 45.08 0 35.1583
521 44.3836 0 36.3724
556 46.4768 0 32.7334
557 47.1742 0 33.9481
558 46.4795 0 35.1633
559 47.1778 0 36.3778
594 49.267 0 32.7362
595 48.5735 0 33.9524
596 49.2706 0 35.1678
597 48.5772 0 36.3839
632 50.6663 0 32.7393
634 50.6698 0 35.1726
633 51.362 0 33.9555
635 51.3662 0 36.3889
670 53.4521 0 32.7406
671 52.7611 0 33.9586
672 53.456 0 35.1754
673 52.7654 0 36.3936
708 54.8509 0 32.7417
709 55.5448 0 33.9586
710 54.8549 0 35.1773
711 55.5489 0 36.3946
948 57.5944 0 32.7401
949 56.9475 0 33.9583
950 57.5976 0 35.1752
951 56.9518 0 36.3943
754 15.7211 0 37.6128
755 15.0718 0 38.8309
756 15.7154 0 40.0518
757 15.0672 0 41.2712
28 17.1242 0 37.613
29 17.8128 0 38.8328
30 17.1187 0 40.0514
31 17.8064 0 41.2722
66 19.9076 0 37.6112
67 19.2122 0 38.8287
68 19.9019 0 40.0477
69 19.206 0 41.2658
104 21.307 0 37.6056
106 21.3014 0 40.0395
105 21.9988 0 38.823
107 21.9936 0 41.2567
142 24.0963 0 37.5995
143 23.3983 0 38.815
144 24.0924 0 40.0306
145 23.3933 0 41.2456
180 25.4958 0 37.5923
181 26.1913 0 38.8068
182 25.4919 0 40.0207
183 26.1885 0 41.2343
218 28.2907 0 37.5858
219 27.5909 0 38.7991
220 28.2885 0 40.0119
221 27.5881 0 41.2245
256 29.6902 0 37.5799
257 30.3886 0 38.7924
258 29.688 0 40.0045
259 30.3875 0 41.2161
294 32.4889 0 37.5756
295 31.7882 0 38.7874
296 32.4879 0 39.999
297 31.7869 0 41.2102
332 33.8884 0 37.5729
333 34.5882 0 38.7846
334 33.8873 0 39.9958
335 34.5878 0 41.2066
371 35.9876 0 38.7834
373 35.9872 0 41.2055
370 36.6878 0 37.5718
372 36.6881 0 39.9946
408 38.0872 0 37.5728
409 38.7876 0 38.7844
410 38.0875 0 39.9957
411 38.7885 0 41.2067
446 40.8865 0 37.5756
447 40.1871 0 38.7875
448 40.888 0 39.999
449 40.1879 0 41.2101
484 42.2861 0 37.5799
485 42.9865 0 38.7924
486 42.2875 0 40.0045
487 42.9883 0 41.2164
522 45.0831 0 37.5858
523 44.3861 0 38.7991
524 45.0861 0 40.0121
525 44.3878 0 41.2245
560 46.4826 0 37.5925
561 47.1816 0 38.8067
562 46.4856 0 40.0208
563 47.1856 0 41.2345
598 49.2749 0 37.5993
599 48.5813 0 38.8153
600 49.2799 0 40.0305
601 48.5853 0 41.2456
636 50.6743 0 37.6062
638 50.6795 0 40.04
637 51.3713 0 38.8226
639 51.3772 0 41.2567
674 53.4607 0 37.6107
675 52.7707 0 38.8294
676 53.4663 0 40.0472
677 52.7768 0 41.2663
712 54.8598 0 37.614
713 55.5539 0 38.832
714 54.8656 0 40.0523
715 55.5597 0 41.2713
952 57.6014 0 37.6119
953 56.957 0 38.8322
954 57.6059 0 40.0508
955 56.9632 0 41.2723
758 15.7089 0 42.4936
759 15.0624 0 43.7148
760 15.7017 0 44.9394
761 15.0574 0 46.1634
762 15.6939 0 47.3909
32 17.1126 0 42.4921
33 17.7993 0 43.7139
34 17.1061 0 44.9357
35 17.7922 0 46.1586
36 17.0993 0 47.3831
70 19.8955 0 42.485
71 19.1993 0 43.704
72 19.8896 0 44.9229
73 19.193 0 46.143
74 19.8858 0 47.3606
108 21.2953 0 42.4734
110 21.2898 0 44.9066
112 21.2866 0 47.3382
109 21.9886 0 43.6897
111 21.9857 0 46.1213
146 24.0885 0 42.4602
147 23.3886 0 43.675
148 24.0861 0 44.8881
149 23.3859 0 46.1026
150 24.0871 0 47.313
184 25.4882 0 42.4478
185 26.1866 0 43.6599
186 25.4859 0 44.873
187 26.187 0 46.0831
188 25.4869 0 47.2959
222 28.2871 0 42.4362
223 27.5861 0 43.6483
224 28.2869 0 44.8584
225 27.5864 0 46.0701
226 28.2892 0 47.2787
260 29.6865 0 42.4277
261 30.3872 0 43.6381
262 29.6861 0 44.8491
263 30.3882 0 46.0583
264 29.6881 0 47.2693
298 32.4875 0 42.4209
299 31.7864 0 43.6318
300 32.488 0 44.8415
301 31.7871 0 46.0519
302 32.4895 0 47.2606
336 33.8868 0 42.4175
337 34.5883 0 43.6275
338 33.887 0 44.8377
339 34.5886 0 46.0471
340 33.888 0 47.257
375 35.9873 0 43.6262
377 35.9872 0 46.0457
374 36.6884 0 42.416
376 36.6885 0 44.8362
378 36.6883 0 47.2552
412 38.0876 0 42.4172
413 38.7888 0 43.6277
414 38.0872 0 44.8374
415 38.7883 0 46.0474
416 38.0866 0 47.2565
450 40.889 0 42.4213
451 40.188 0 43.6315
452 40.889 0 44.8421
453 40.187 0 46.0512
454 40.8874 0 47.2615
488 42.2884 0 42.4275
489 42.9895 0 43.6389
490 42.288 0 44.8486
491 42.9889 0 46.0595
492 42.2861 0 47.268
526 45.0887 0 42.4368
527 44.3888 0 43.6478
528 45.0897 0 44.8596
529 44.3879 0 46.0689
530 45.0879 0 47.2806
564 46.4883 0 42.4474
565 47.1888 0 43.6607
566 46.4891 0 44.8719
567 47.1897 0 46.0847
568 46.4871 0 47.2938
602 49.2847 0 42.4606
603 48.5886 0 43.6744
604 49.2887 0 44.889
605 48.5896 0 46.1009
606 49.2895 0 47.3152
640 50.6845 0 42.4734
642 50.6887 0 44.9059
644 50.6898 0 47.3359
641 51.3831 0 43.6903
643 51.3878 0 46.1228
678 53.4728 0 42.4847
679 52.7831 0 43.7039
680 53.4795 0 44.9234
681 52.7882 0 46.1419
682 53.4849 0 47.3624
716 54.8726 0 42.4927
717 55.5662 0 43.7135
718 54.8798 0 44.9359
719 55.5729 0 46.1588
720 54.8861 0 47.3819
956 57.6108 0 42.4924
957 56.9702 0 43.7158
958 57.6158 0 44.9383
959 56.9778 0 46.1643
960 57.6196 0 47.3908
763 15.0536 0 48.6196
764 15.6872 0 49.8511
765 15.0521 0 51.0875
766 15.6811 0 52.3266
37 17.7867 0 48.6062
38 17.0944 0 49.8343
75 19.1885 0 48.5815
76 19.8872 0 49.7953
114 21.2886 0 49.766
772 17.7867 0 51.0548
773 17.0974 0 52.2892
781 19.1905 0 51.0168
782 19.9002 0 52.2236
789 21.3047 0 52.1905
113 21.9873 0 48.5494
151 23.3877 0 48.5273
152 24.0936 0 49.7343
189 26.191 0 48.5039
190 25.4929 0 49.7168
788 21.997 0 50.9718
797 23.3972 0 50.9487
798 24.1068 0 52.1538
804 26.2002 0 50.9221
805 25.5078 0 52.1375
227 27.5901 0 48.4905
228 28.295 0 49.6975
265 30.3914 0 48.4772
266 29.6932 0 49.6885
813 27.5986 0 50.9097
814 28.3029 0 52.1172
820 30.3969 0 50.8955
821 29.7028 0 52.109
303 31.7898 0 48.4711
304 32.4923 0 49.6793
341 34.5895 0 48.4659
342 33.89 0 49.6758
379 35.9876 0 48.4646
829 31.7946 0 50.8901
830 32.495 0 52.0996
836 34.5908 0 50.8845
837 33.8944 0 52.0964
845 35.9884 0 50.8832
380 36.688 0 49.6739
417 38.7868 0 48.4664
418 38.0855 0 49.6751
455 40.185 0 48.4699
456 40.8838 0 49.6806
846 36.6858 0 52.0942
852 38.7841 0 50.8852
853 38.0851 0 52.0956
861 40.1817 0 50.8885
862 40.8766 0 52.1013
493 42.9855 0 48.4791
494 42.2816 0 49.6865
531 44.384 0 48.4883
532 45.0819 0 49.7002
868 42.9785 0 50.8979
869 42.2762 0 52.1064
877 44.3765 0 50.9063
878 45.0694 0 52.1207
569 47.1864 0 48.5066
570 46.4804 0 49.7131
607 48.5861 0 48.524
608 49.2846 0 49.7383
646 50.6849 0 49.7618
884 47.1766 0 50.9262
885 46.4697 0 52.1324
893 48.5757 0 50.943
894 49.2677 0 52.1596
901 50.6697 0 52.1822
645 51.3889 0 48.5528
683 52.7899 0 48.5785
684 53.4869 0 49.7998
721 55.5781 0 48.6083
722 54.889 0 49.8309
900 51.3823 0 50.9785
909 52.7846 0 51.0106
910 53.4786 0 52.2345
916 55.5801 0 51.061
917 54.8887 0 52.2827
961 56.9842 0 48.6199
962 57.621 0 49.8523
963 56.9873 0 51.0852
964 57.6111 0 52.3296
767 15.0349 0 53.5766
768 15.7255 0 54.7679
774 17.821 0 53.4939
775 17.1007 0 54.7063
783 19.2001 0 53.4444
784 19.9555 0 54.6261
791 21.3208 0 54.5946
790 22.0324 0 53.3878
799 23.4064 0 53.3676
800 24.1455 0 54.5581
806 26.2268 0 53.3391
807 25.5107 0 54.543
815 27.5998 0 53.3282
816 28.3318 0 54.5225
822 30.4166 0 53.3133
823 29.6969 0 54.5148
831 31.7893 0 53.3086
832 32.5169 0 54.5053
838 34.6047 0 53.3027
839 33.882 0 54.5024
847 35.9771 0 53.3013
848 36.7014 0 54.5
854 38.7924 0 53.3036
855 38.0664 0 54.5014
863 40.1649 0 53.3067
864 40.8861 0 54.5073
870 42.9806 0 53.3163
871 42.2512 0 54.512
879 44.3533 0 53.3239
880 45.0712 0 54.5266
886 47.1715 0 53.3446
887 46.4364 0 54.5371
895 48.545 0 53.3595
896 49.2589 0 54.5648
903 50.6241 0 54.5849
902 51.369 0 53.3977
911 52.7442 0 53.4288
912 53.4529 0 54.6377
918 55.5913 0 53.5195
919 54.8183 0 54.6906
965 56.986 0 53.5781
966 57.6685 0 54.7381
