# graphene sheet, generated by graphene_defect_ml

966 atoms
1 atom types

1.19750 71.19750 xlo xhi
-12.50000 12.50000 ylo yhi
-7.91506 62.08494 zlo zhi

Masses

1 12.0107

Atoms # molecular

1 1 1 17.78000 0.00000 4.81510
2 1 1 17.08500 0.00000 6.01888
3 1 1 17.78000 0.00000 7.22265
4 1 1 17.08500 0.00000 8.42643
5 1 1 17.78000 0.00000 9.63020
6 1 1 17.08500 0.00000 10.83398
7 1 1 17.78000 0.00000 12.03775
8 1 1 17.08500 0.00000 13.24153
9 1 1 17.78000 0.00000 14.44530
10 1 1 17.08500 0.00000 15.64908
11 1 1 17.78000 0.00000 16.85285
12 1 1 17.08500 0.00000 18.05663
13 1 1 17.78000 0.00000 19.26040
14 1 1 17.08500 0.00000 20.46418
15 1 1 17.78000 0.00000 21.66796
16 1 1 17.08500 0.00000 22.87173
17 1 1 17.78000 0.00000 24.07551
18 1 1 17.08500 0.00000 25.27928
19 1 1 17.78000 0.00000 26.48306
20 1 1 17.08500 0.00000 27.68683
21 1 1 17.78000 0.00000 28.89061
22 1 1 17.08500 0.00000 30.09438
23 1 1 17.78000 0.00000 31.29816
24 1 1 17.08500 0.00000 32.50193
25 1 1 17.78000 0.00000 33.70571
26 1 1 17.08500 0.00000 34.90948
27 1 1 17.78000 0.00000 36.11326
28 1 1 17.08500 0.00000 37.31703
29 1 1 17.78000 0.00000 38.52081
30 1 1 17.08500 0.00000 39.72459
31 1 1 17.78000 0.00000 40.92836
32 1 1 17.08500 0.00000 42.13214
33 1 1 17.78000 0.00000 43.33591
34 1 1 17.08500 0.00000 44.53969
35 1 1 17.78000 0.00000 45.74346
36 1 1 17.08500 0.00000 46.94724
37 1 1 17.78000 0.00000 48.15101
38 1 1 17.08500 0.00000 49.35479
39 1 1 19.17000 0.00000 4.81510
40 1 1 19.86500 0.00000 6.01888
41 1 1 19.17000 0.00000 7.22265
42 1 1 19.86500 0.00000 8.42643
43 1 1 19.17000 0.00000 9.63020
44 1 1 19.86500 0.00000 10.83398
45 1 1 19.17000 0.00000 12.03775
46 1 1 19.86500 0.00000 13.24153
47 1 1 19.17000 0.00000 14.44530
48 1 1 19.86500 0.00000 15.64908
49 1 1 19.17000 0.00000 16.85285
50 1 1 19.86500 0.00000 18.05663
51 1 1 19.17000 0.00000 19.26040
52 1 1 19.86500 0.00000 20.46418
53 1 1 19.17000 0.00000 21.66796
54 1 1 19.86500 0.00000 22.87173
55 1 1 19.17000 0.00000 24.07551
56 1 1 19.86500 0.00000 25.27928
57 1 1 19.17000 0.00000 26.48306
58 1 1 19.86500 0.00000 27.68683
59 1 1 19.17000 0.00000 28.89061
60 1 1 19.86500 0.00000 30.09438
61 1 1 19.17000 0.00000 31.29816
62 1 1 19.86500 0.00000 32.50193
63 1 1 19.17000 0.00000 33.70571
64 1 1 19.86500 0.00000 34.90948
65 1 1 19.17000 0.00000 36.11326
66 1 1 19.86500 0.00000 37.31703
67 1 1 19.17000 0.00000 38.52081
68 1 1 19.86500 0.00000 39.72459
69 1 1 19.17000 0.00000 40.92836
70 1 1 19.86500 0.00000 42.13214
71 1 1 19.17000 0.00000 43.33591
72 1 1 19.86500 0.00000 44.53969
73 1 1 19.17000 0.00000 45.74346
74 1 1 19.86500 0.00000 46.94724
75 1 1 19.17000 0.00000 48.15101
76 1 1 19.86500 0.00000 49.35479
77 1 1 21.95000 0.00000 4.81510
78 1 1 21.25500 0.00000 6.01888
79 1 1 21.95000 0.00000 7.22265
80 1 1 21.25500 0.00000 8.42643
81 1 1 21.95000 0.00000 9.63020
82 1 1 21.25500 0.00000 10.83398
83 1 1 21.95000 0.00000 12.03775
84 1 1 21.25500 0.00000 13.24153
85 1 1 21.95000 0.00000 14.44530
86 1 1 21.25500 0.00000 15.64908
87 1 1 21.95000 0.00000 16.85285
88 1 1 21.25500 0.00000 18.05663
89 1 1 21.95000 0.00000 19.26040
90 1 1 21.25500 0.00000 20.46418
91 1 1 21.95000 0.00000 21.66796
92 1 1 21.25500 0.00000 22.87173
93 1 1 21.95000 0.00000 24.07551
94 1 1 21.25500 0.00000 25.27928
95 1 1 21.95000 0.00000 26.48306
96 1 1 21.25500 0.00000 27.68683
97 1 1 21.95000 0.00000 28.89061
98 1 1 21.25500 0.00000 30.09438
99 1 1 21.95000 0.00000 31.29816
100 1 1 21.25500 0.00000 32.50193
101 1 1 21.95000 0.00000 33.70571
102 1 1 21.25500 0.00000 34.90948
103 1 1 21.95000 0.00000 36.11326
104 1 1 21.25500 0.00000 37.31703
105 1 1 21.95000 0.00000 38.52081
106 1 1 21.25500 0.00000 39.72459
107 1 1 21.95000 0.00000 40.92836
108 1 1 21.25500 0.00000 42.13214
109 1 1 21.95000 0.00000 43.33591
110 1 1 21.25500 0.00000 44.53969
111 1 1 21.95000 0.00000 45.74346
112 1 1 21.25500 0.00000 46.94724
113 1 1 21.95000 0.00000 48.15101
114 1 1 21.25500 0.00000 49.35479
115 1 1 23.34000 0.00000 4.81510
116 1 1 24.03500 0.00000 6.01888
117 1 1 23.34000 0.00000 7.22265
118 1 1 24.03500 0.00000 8.42643
119 1 1 23.34000 0.00000 9.63020
120 1 1 24.03500 0.00000 10.83398
121 1 1 23.34000 0.00000 12.03775
122 1 1 24.03500 0.00000 13.24153
123 1 1 23.34000 0.00000 14.44530
124 1 1 24.03500 0.00000 15.64908
125 1 1 23.34000 0.00000 16.85285
126 1 1 24.03500 0.00000 18.05663
127 1 1 23.34000 0.00000 19.26040
128 1 1 24.03500 0.00000 20.46418
129 1 1 23.34000 0.00000 21.66796
130 1 1 24.03500 0.00000 22.87173
131 1 1 23.34000 0.00000 24.07551
132 1 1 24.03500 0.00000 25.27928
133 1 1 23.34000 0.00000 26.48306
134 1 1 24.03500 0.00000 27.68683
135 1 1 23.34000 0.00000 28.89061
136 1 1 24.03500 0.00000 30.09438
137 1 1 23.34000 0.00000 31.29816
138 1 1 24.03500 0.00000 32.50193
139 1 1 23.34000 0.00000 33.70571
140 1 1 24.03500 0.00000 34.90948
141 1 1 23.34000 0.00000 36.11326
142 1 1 24.03500 0.00000 37.31703
143 1 1 23.34000 0.00000 38.52081
144 1 1 24.03500 0.00000 39.72459
145 1 1 23.34000 0.00000 40.92836
146 1 1 24.03500 0.00000 42.13214
147 1 1 23.34000 0.00000 43.33591
148 1 1 24.03500 0.00000 44.53969
149 1 1 23.34000 0.00000 45.74346
150 1 1 24.03500 0.00000 46.94724
151 1 1 23.34000 0.00000 48.15101
152 1 1 24.03500 0.00000 49.35479
153 1 1 26.12000 0.00000 4.81510
154 1 1 25.42500 0.00000 6.01888
155 1 1 26.12000 0.00000 7.22265
156 1 1 25.42500 0.00000 8.42643
157 1 1 26.12000 0.00000 9.63020
158 1 1 25.42500 0.00000 10.83398
159 1 1 26.12000 0.00000 12.03775
160 1 1 25.42500 0.00000 13.24153
161 1 1 26.12000 0.00000 14.44530
162 1 1 25.42500 0.00000 15.64908
163 1 1 26.12000 0.00000 16.85285
164 1 1 25.42500 0.00000 18.05663
165 1 1 26.12000 0.00000 19.26040
166 1 1 25.42500 0.00000 20.46418
167 1 1 26.12000 0.00000 21.66796
168 1 1 25.42500 0.00000 22.87173
169 1 1 26.12000 0.00000 24.07551
170 1 1 25.42500 0.00000 25.27928
171 1 1 26.12000 0.00000 26.48306
172 1 1 25.42500 0.00000 27.68683
173 1 1 26.12000 0.00000 28.89061
174 1 1 25.42500 0.00000 30.09438
175 1 1 26.12000 0.00000 31.29816
176 1 1 25.42500 0.00000 32.50193
177 1 1 26.12000 0.00000 33.70571
178 1 1 25.42500 0.00000 34.90948
179 1 1 26.12000 0.00000 36.11326
180 1 1 25.42500 0.00000 37.31703
181 1 1 26.12000 0.00000 38.52081
182 1 1 25.42500 0.00000 39.72459
183 1 1 26.12000 0.00000 40.92836
184 1 1 25.42500 0.00000 42.13214
185 1 1 26.12000 0.00000 43.33591
186 1 1 25.42500 0.00000 44.53969
187 1 1 26.12000 0.00000 45.74346
188 1 1 25.42500 0.00000 46.94724
189 1 1 26.12000 0.00000 48.15101
190 1 1 25.42500 0.00000 49.35479
191 1 1 27.51000 0.00000 4.81510
192 1 1 28.20500 0.00000 6.01888
193 1 1 27.51000 0.00000 7.22265
194 1 1 28.20500 0.00000 8.42643
195 1 1 27.51000 0.00000 9.63020
196 1 1 28.20500 0.00000 10.83398
197 1 1 27.51000 0.00000 12.03775
198 1 1 28.20500 0.00000 13.24153
199 1 1 27.51000 0.00000 14.44530
200 1 1 28.20500 0.00000 15.64908
201 1 1 27.51000 0.00000 16.85285
202 1 1 28.20500 0.00000 18.05663
203 1 1 27.51000 0.00000 19.26040
204 1 1 28.20500 0.00000 20.46418
205 1 1 27.51000 0.00000 21.66796
206 1 1 28.20500 0.00000 22.87173
207 1 1 27.51000 0.00000 24.07551
208 1 1 28.20500 0.00000 25.27928
209 1 1 27.51000 0.00000 26.48306
210 1 1 28.20500 0.00000 27.68683
211 1 1 27.51000 0.00000 28.89061
212 1 1 28.20500 0.00000 30.09438
213 1 1 27.51000 0.00000 31.29816
214 1 1 28.20500 0.00000 32.50193
215 1 1 27.51000 0.00000 33.70571
216 1 1 28.20500 0.00000 34.90948
217 1 1 27.51000 0.00000 36.11326
218 1 1 28.20500 0.00000 37.31703
219 1 1 27.51000 0.00000 38.52081
220 1 1 28.20500 0.00000 39.72459
221 1 1 27.51000 0.00000 40.92836
222 1 1 28.20500 0.00000 42.13214
223 1 1 27.51000 0.00000 43.33591
224 1 1 28.20500 0.00000 44.53969
225 1 1 27.51000 0.00000 45.74346
226 1 1 28.20500 0.00000 46.94724
227 1 1 27.51000 0.00000 48.15101
228 1 1 28.20500 0.00000 49.35479
229 1 1 30.29000 0.00000 4.81510
230 1 1 29.59500 0.00000 6.01888
231 1 1 30.29000 0.00000 7.22265
232 1 1 29.59500 0.00000 8.42643
233 1 1 30.29000 0.00000 9.63020
234 1 1 29.59500 0.00000 10.83398
235 1 1 30.29000 0.00000 12.03775
236 1 1 29.59500 0.00000 13.24153
237 1 1 30.29000 0.00000 14.44530
238 1 1 29.59500 0.00000 15.64908
239 1 1 30.29000 0.00000 16.85285
240 1 1 29.59500 0.00000 18.05663
241 1 1 30.29000 0.00000 19.26040
242 1 1 29.59500 0.00000 20.46418
243 1 1 30.29000 0.00000 21.66796
244 1 1 29.59500 0.00000 22.87173
245 1 1 30.29000 0.00000 24.07551
246 1 1 29.59500 0.00000 25.27928
247 1 1 30.29000 0.00000 26.48306
248 1 1 29.59500 0.00000 27.68683
249 1 1 30.29000 0.00000 28.89061
250 1 1 29.59500 0.00000 30.09438
251 1 1 30.29000 0.00000 31.29816
252 1 1 29.59500 0.00000 32.50193
253 1 1 30.29000 0.00000 33.70571
254 1 1 29.59500 0.00000 34.90948
255 1 1 30.29000 0.00000 36.11326
256 1 1 29.59500 0.00000 37.31703
257 1 1 30.29000 0.00000 38.52081
258 1 1 29.59500 0.00000 39.72459
259 1 1 30.29000 0.00000 40.92836
260 1 1 29.59500 0.00000 42.13214
261 1 1 30.29000 0.00000 43.33591
262 1 1 29.59500 0.00000 44.53969
263 1 1 30.29000 0.00000 45.74346
264 1 1 29.59500 0.00000 46.94724
265 1 1 30.29000 0.00000 48.15101
266 1 1 29.59500 0.00000 49.35479
267 1 1 31.68000 0.00000 4.81510
268 1 1 32.37500 0.00000 6.01888
269 1 1 31.68000 0.00000 7.22265
270 1 1 32.37500 0.00000 8.42643
271 1 1 31.68000 0.00000 9.63020
272 1 1 32.37500 0.00000 10.83398
273 1 1 31.68000 0.00000 12.03775
274 1 1 32.37500 0.00000 13.24153
275 1 1 31.68000 0.00000 14.44530
276 1 1 32.37500 0.00000 15.64908
277 1 1 31.68000 0.00000 16.85285
278 1 1 32.37500 0.00000 18.05663
279 1 1 31.68000 0.00000 19.26040
280 1 1 32.37500 0.00000 20.46418
281 1 1 31.68000 0.00000 21.66796
282 1 1 32.37500 0.00000 22.87173
283 1 1 31.68000 0.00000 24.07551
284 1 1 32.37500 0.00000 25.27928
285 1 1 31.68000 0.00000 26.48306
286 1 1 32.37500 0.00000 27.68683
287 1 1 31.68000 0.00000 28.89061
288 1 1 32.37500 0.00000 30.09438
289 1 1 31.68000 0.00000 31.29816
290 1 1 32.37500 0.00000 32.50193
291 1 1 31.68000 0.00000 33.70571
292 1 1 32.37500 0.00000 34.90948
293 1 1 31.68000 0.00000 36.11326
294 1 1 32.37500 0.00000 37.31703
295 1 1 31.68000 0.00000 38.52081
296 1 1 32.37500 0.00000 39.72459
297 1 1 31.68000 0.00000 40.92836
298 1 1 32.37500 0.00000 42.13214
299 1 1 31.68000 0.00000 43.33591
300 1 1 32.37500 0.00000 44.53969
301 1 1 31.68000 0.00000 45.74346
302 1 1 32.37500 0.00000 46.94724
303 1 1 31.68000 0.00000 48.15101
304 1 1 32.37500 0.00000 49.35479
305 1 1 34.46000 0.00000 4.81510
306 1 1 33.76500 0.00000 6.01888
307 1 1 34.46000 0.00000 7.22265
308 1 1 33.76500 0.00000 8.42643
309 1 1 34.46000 0.00000 9.63020
310 1 1 33.76500 0.00000 10.83398
311 1 1 34.46000 0.00000 12.03775
312 1 1 33.76500 0.00000 13.24153
313 1 1 34.46000 0.00000 14.44530
314 1 1 33.76500 0.00000 15.64908
315 1 1 34.46000 0.00000 16.85285
316 1 1 33.76500 0.00000 18.05663
317 1 1 34.46000 0.00000 19.26040
318 1 1 33.76500 0.00000 20.46418
319 1 1 34.46000 0.00000 21.66796
320 1 1 33.76500 0.00000 22.87173
321 1 1 34.46000 0.00000 24.07551
322 1 1 33.76500 0.00000 25.27928
323 1 1 34.46000 0.00000 26.48306
324 1 1 33.76500 0.00000 27.68683
325 1 1 34.46000 0.00000 28.89061
326 1 1 33.76500 0.00000 30.09438
327 1 1 34.46000 0.00000 31.29816
328 1 1 33.76500 0.00000 32.50193
329 1 1 34.46000 0.00000 33.70571
330 1 1 33.76500 0.00000 34.90948
331 1 1 34.46000 0.00000 36.11326
332 1 1 33.76500 0.00000 37.31703
333 1 1 34.46000 0.00000 38.52081
334 1 1 33.76500 0.00000 39.72459
335 1 1 34.46000 0.00000 40.92836
336 1 1 33.76500 0.00000 42.13214
337 1 1 34.46000 0.00000 43.33591
338 1 1 33.76500 0.00000 44.53969
339 1 1 34.46000 0.00000 45.74346
340 1 1 33.76500 0.00000 46.94724
341 1 1 34.46000 0.00000 48.15101
342 1 1 33.76500 0.00000 49.35479
343 1 1 35.85000 0.00000 4.81510
344 1 1 36.54500 0.00000 6.01888
345 1 1 35.85000 0.00000 7.22265
346 1 1 36.54500 0.00000 8.42643
347 1 1 35.85000 0.00000 9.63020
348 1 1 36.54500 0.00000 10.83398
349 1 1 35.85000 0.00000 12.03775
350 1 1 36.54500 0.00000 13.24153
351 1 1 35.85000 0.00000 14.44530
352 1 1 36.54500 0.00000 15.64908
353 1 1 35.85000 0.00000 16.85285
354 1 1 36.54500 0.00000 18.05663
355 1 1 35.85000 0.00000 19.26040
356 1 1 36.54500 0.00000 20.46418
357 1 1 35.85000 0.00000 21.66796
358 1 1 36.54500 0.00000 22.87173
359 1 1 35.85000 0.00000 24.07551
360 1 1 36.54500 0.00000 25.27928
361 1 1 35.85000 0.00000 26.48306
362 1 1 36.54500 0.00000 27.68683
363 1 1 35.85000 0.00000 28.89061
364 1 1 36.54500 0.00000 30.09438
365 1 1 35.85000 0.00000 31.29816
366 1 1 36.54500 0.00000 32.50193
367 1 1 35.85000 0.00000 33.70571
368 1 1 36.54500 0.00000 34.90948
369 1 1 35.85000 0.00000 36.11326
370 1 1 36.54500 0.00000 37.31703
371 1 1 35.85000 0.00000 38.52081
372 1 1 36.54500 0.00000 39.72459
373 1 1 35.85000 0.00000 40.92836
374 1 1 36.54500 0.00000 42.13214
375 1 1 35.85000 0.00000 43.33591
376 1 1 36.54500 0.00000 44.53969
377 1 1 35.85000 0.00000 45.74346
378 1 1 36.54500 0.00000 46.94724
379 1 1 35.85000 0.00000 48.15101
380 1 1 36.54500 0.00000 49.35479
381 1 1 38.63000 0.00000 4.81510
382 1 1 37.93500 0.00000 6.01888
383 1 1 38.63000 0.00000 7.22265
384 1 1 37.93500 0.00000 8.42643
385 1 1 38.63000 0.00000 9.63020
386 1 1 37.93500 0.00000 10.83398
387 1 1 38.63000 0.00000 12.03775
388 1 1 37.93500 0.00000 13.24153
389 1 1 38.63000 0.00000 14.44530
390 1 1 37.93500 0.00000 15.64908
391 1 1 38.63000 0.00000 16.85285
392 1 1 37.93500 0.00000 18.05663
393 1 1 38.63000 0.00000 19.26040
394 1 1 37.93500 0.00000 20.46418
395 1 1 38.63000 0.00000 21.66796
396 1 1 37.93500 0.00000 22.87173
397 1 1 38.63000 0.00000 24.07551
398 1 1 37.93500 0.00000 25.27928
399 1 1 38.63000 0.00000 26.48306
400 1 1 37.93500 0.00000 27.68683
401 1 1 38.63000 0.00000 28.89061
402 1 1 37.93500 0.00000 30.09438
403 1 1 38.63000 0.00000 31.29816
404 1 1 37.93500 0.00000 32.50193
405 1 1 38.63000 0.00000 33.70571
406 1 1 37.93500 0.00000 34.90948
407 1 1 38.63000 0.00000 36.11326
408 1 1 37.93500 0.00000 37.31703
409 1 1 38.63000 0.00000 38.52081
410 1 1 37.93500 0.00000 39.72459
411 1 1 38.63000 0.00000 40.92836
412 1 1 37.93500 0.00000 42.13214
413 1 1 38.63000 0.00000 43.33591
414 1 1 37.93500 0.00000 44.53969
415 1 1 38.63000 0.00000 45.74346
416 1 1 37.93500 0.00000 46.94724
417 1 1 38.63000 0.00000 48.15101
418 1 1 37.93500 0.00000 49.35479
419 1 1 40.02000 0.00000 4.81510
420 1 1 40.71500 0.00000 6.01888
421 1 1 40.02000 0.00000 7.22265
422 1 1 40.71500 0.00000 8.42643
423 1 1 40.02000 0.00000 9.63020
424 1 1 40.71500 0.00000 10.83398
425 1 1 40.02000 0.00000 12.03775
426 1 1 40.71500 0.00000 13.24153
427 1 1 40.02000 0.00000 14.44530
428 1 1 40.71500 0.00000 15.64908
429 1 1 40.02000 0.00000 16.85285
430 1 1 40.71500 0.00000 18.05663
431 1 1 40.02000 0.00000 19.26040
432 1 1 40.71500 0.00000 20.46418
433 1 1 40.02000 0.00000 21.66796
434 1 1 40.71500 0.00000 22.87173
435 1 1 40.02000 0.00000 24.07551
436 1 1 40.71500 0.00000 25.27928
437 1 1 40.02000 0.00000 26.48306
438 1 1 40.71500 0.00000 27.68683
439 1 1 40.02000 0.00000 28.89061
440 1 1 40.71500 0.00000 30.09438
441 1 1 40.02000 0.00000 31.29816
442 1 1 40.71500 0.00000 32.50193
443 1 1 40.02000 0.00000 33.70571
444 1 1 40.71500 0.00000 34.90948
445 1 1 40.02000 0.00000 36.11326
446 1 1 40.71500 0.00000 37.31703
447 1 1 40.02000 0.00000 38.52081
448 1 1 40.71500 0.00000 39.72459
449 1 1 40.02000 0.00000 40.92836
450 1 1 40.71500 0.00000 42.13214
451 1 1 40.02000 0.00000 43.33591
452 1 1 40.71500 0.00000 44.53969
453 1 1 40.02000 0.00000 45.74346
454 1 1 40.71500 0.00000 46.94724
455 1 1 40.02000 0.00000 48.15101
456 1 1 40.71500 0.00000 49.35479
457 1 1 42.80000 0.00000 4.81510
458 1 1 42.10500 0.00000 6.01888
459 1 1 42.80000 0.00000 7.22265
460 1 1 42.10500 0.00000 8.42643
461 1 1 42.80000 0.00000 9.63020
462 1 1 42.10500 0.00000 10.83398
463 1 1 42.80000 0.00000 12.03775
464 1 1 42.10500 0.00000 13.24153
465 1 1 42.80000 0.00000 14.44530
466 1 1 42.10500 0.00000 15.64908
467 1 1 42.80000 0.00000 16.85285
468 1 1 42.10500 0.00000 18.05663
469 1 1 42.80000 0.00000 19.26040
470 1 1 42.10500 0.00000 20.46418
471 1 1 42.80000 0.00000 21.66796
472 1 1 42.10500 0.00000 22.87173
473 1 1 42.80000 0.00000 24.07551
474 1 1 42.10500 0.00000 25.27928
475 1 1 42.80000 0.00000 26.48306
476 1 1 42.10500 0.00000 27.68683
477 1 1 42.80000 0.00000 28.89061
478 1 1 42.10500 0.00000 30.09438
479 1 1 42.80000 0.00000 31.29816
480 1 1 42.10500 0.00000 32.50193
481 1 1 42.80000 0.00000 33.70571
482 1 1 42.10500 0.00000 34.90948
483 1 1 42.80000 0.00000 36.11326
484 1 1 42.10500 0.00000 37.31703
485 1 1 42.80000 0.00000 38.52081
486 1 1 42.10500 0.00000 39.72459
487 1 1 42.80000 0.00000 40.92836
488 1 1 42.10500 0.00000 42.13214
489 1 1 42.80000 0.00000 43.33591
490 1 1 42.10500 0.00000 44.53969
491 1 1 42.80000 0.00000 45.74346
492 1 1 42.10500 0.00000 46.94724
493 1 1 42.80000 0.00000 48.15101
494 1 1 42.10500 0.00000 49.35479
495 1 1 44.19000 0.00000 4.81510
496 1 1 44.88500 0.00000 6.01888
497 1 1 44.19000 0.00000 7.22265
498 1 1 44.88500 0.00000 8.42643
499 1 1 44.19000 0.00000 9.63020
500 1 1 44.88500 0.00000 10.83398
501 1 1 44.19000 0.00000 12.03775
502 1 1 44.88500 0.00000 13.24153
503 1 1 44.19000 0.00000 14.44530
504 1 1 44.88500 0.00000 15.64908
505 1 1 44.19000 0.00000 16.85285
506 1 1 44.88500 0.00000 18.05663
507 1 1 44.19000 0.00000 19.26040
508 1 1 44.88500 0.00000 20.46418
509 1 1 44.19000 0.00000 21.66796
510 1 1 44.88500 0.00000 22.87173
511 1 1 44.19000 0.00000 24.07551
512 1 1 44.88500 0.00000 25.27928
513 1 1 44.19000 0.00000 26.48306
514 1 1 44.88500 0.00000 27.68683
515 1 1 44.19000 0.00000 28.89061
516 1 1 44.88500 0.00000 30.09438
517 1 1 44.19000 0.00000 31.29816
518 1 1 44.88500 0.00000 32.50193
519 1 1 44.19000 0.00000 33.70571
520 1 1 44.88500 0.00000 34.90948
521 1 1 44.19000 0.00000 36.11326
522 1 1 44.88500 0.00000 37.31703
523 1 1 44.19000 0.00000 38.52081
524 1 1 44.88500 0.00000 39.72459
525 1 1 44.19000 0.00000 40.92836
526 1 1 44.88500 0.00000 42.13214
527 1 1 44.19000 0.00000 43.33591
528 1 1 44.88500 0.00000 44.53969
529 1 1 44.19000 0.00000 45.74346
530 1 1 44.88500 0.00000 46.94724
531 1 1 44.19000 0.00000 48.15101
532 1 1 44.88500 0.00000 49.35479
533 1 1 46.97000 0.00000 4.81510
534 1 1 46.27500 0.00000 6.01888
535 1 1 46.97000 0.00000 7.22265
536 1 1 46.27500 0.00000 8.42643
537 1 1 46.97000 0.00000 9.63020
538 1 1 46.27500 0.00000 10.83398
539 1 1 46.97000 0.00000 12.03775
540 1 1 46.27500 0.00000 13.24153
541 1 1 46.97000 0.00000 14.44530
542 1 1 46.27500 0.00000 15.64908
543 1 1 46.97000 0.00000 16.85285
544 1 1 46.27500 0.00000 18.05663
545 1 1 46.97000 0.00000 19.26040
546 1 1 46.27500 0.00000 20.46418
547 1 1 46.97000 0.00000 21.66796
548 1 1 46.27500 0.00000 22.87173
549 1 1 46.97000 0.00000 24.07551
550 1 1 46.27500 0.00000 25.27928
551 1 1 46.97000 0.00000 26.48306
552 1 1 46.27500 0.00000 27.68683
553 1 1 46.97000 0.00000 28.89061
554 1 1 46.27500 0.00000 30.09438
555 1 1 46.97000 0.00000 31.29816
556 1 1 46.27500 0.00000 32.50193
557 1 1 46.97000 0.00000 33.70571
558 1 1 46.27500 0.00000 34.90948
559 1 1 46.97000 0.00000 36.11326
560 1 1 46.27500 0.00000 37.31703
561 1 1 46.97000 0.00000 38.52081
562 1 1 46.27500 0.00000 39.72459
563 1 1 46.97000 0.00000 40.92836
564 1 1 46.27500 0.00000 42.13214
565 1 1 46.97000 0.00000 43.33591
566 1 1 46.27500 0.00000 44.53969
567 1 1 46.97000 0.00000 45.74346
568 1 1 46.27500 0.00000 46.94724
569 1 1 46.97000 0.00000 48.15101
570 1 1 46.27500 0.00000 49.35479
571 1 1 48.36000 0.00000 4.81510
572 1 1 49.05500 0.00000 6.01888
573 1 1 48.36000 0.00000 7.22265
574 1 1 49.05500 0.00000 8.42643
575 1 1 48.36000 0.00000 9.63020
576 1 1 49.05500 0.00000 10.83398
577 1 1 48.36000 0.00000 12.03775
578 1 1 49.05500 0.00000 13.24153
579 1 1 48.36000 0.00000 14.44530
580 1 1 49.05500 0.00000 15.64908
581 1 1 48.36000 0.00000 16.85285
582 1 1 49.05500 0.00000 18.05663
583 1 1 48.36000 0.00000 19.26040
584 1 1 49.05500 0.00000 20.46418
585 1 1 48.36000 0.00000 21.66796
586 1 1 49.05500 0.00000 22.87173
587 1 1 48.36000 0.00000 24.07551
588 1 1 49.05500 0.00000 25.27928
589 1 1 48.36000 0.00000 26.48306
590 1 1 49.05500 0.00000 27.68683
591 1 1 48.36000 0.00000 28.89061
592 1 1 49.05500 0.00000 30.09438
593 1 1 48.36000 0.00000 31.29816
594 1 1 49.05500 0.00000 32.50193
595 1 1 48.36000 0.00000 33.70571
596 1 1 49.05500 0.00000 34.90948
597 1 1 48.36000 0.00000 36.11326
598 1 1 49.05500 0.00000 37.31703
599 1 1 48.36000 0.00000 38.52081
600 1 1 49.05500 0.00000 39.72459
601 1 1 48.36000 0.00000 40.92836
602 1 1 49.05500 0.00000 42.13214
603 1 1 48.36000 0.00000 43.33591
604 1 1 49.05500 0.00000 44.53969
605 1 1 48.36000 0.00000 45.74346
606 1 1 49.05500 0.00000 46.94724
607 1 1 48.36000 0.00000 48.15101
608 1 1 49.05500 0.00000 49.35479
609 1 1 51.14000 0.00000 4.81510
610 1 1 50.44500 0.00000 6.01888
611 1 1 51.14000 0.00000 7.22265
612 1 1 50.44500 0.00000 8.42643
613 1 1 51.14000 0.00000 9.63020
614 1 1 50.44500 0.00000 10.83398
615 1 1 51.14000 0.00000 12.03775
616 1 1 50.44500 0.00000 13.24153
617 1 1 51.14000 0.00000 14.44530
618 1 1 50.44500 0.00000 15.64908
619 1 1 51.14000 0.00000 16.85285
620 1 1 50.44500 0.00000 18.05663
621 1 1 51.14000 0.00000 19.26040
622 1 1 50.44500 0.00000 20.46418
623 1 1 51.14000 0.00000 21.66796
624 1 1 50.44500 0.00000 22.87173
625 1 1 51.14000 0.00000 24.07551
626 1 1 50.44500 0.00000 25.27928
627 1 1 51.14000 0.00000 26.48306
628 1 1 50.44500 0.00000 27.68683
629 1 1 51.14000 0.00000 28.89061
630 1 1 50.44500 0.00000 30.09438
631 1 1 51.14000 0.00000 31.29816
632 1 1 50.44500 0.00000 32.50193
633 1 1 51.14000 0.00000 33.70571
634 1 1 50.44500 0.00000 34.90948
635 1 1 51.14000 0.00000 36.11326
636 1 1 50.44500 0.00000 37.31703
637 1 1 51.14000 0.00000 38.52081
638 1 1 50.44500 0.00000 39.72459
639 1 1 51.14000 0.00000 40.92836
640 1 1 50.44500 0.00000 42.13214
641 1 1 51.14000 0.00000 43.33591
642 1 1 50.44500 0.00000 44.53969
643 1 1 51.14000 0.00000 45.74346
644 1 1 50.44500 0.00000 46.94724
645 1 1 51.14000 0.00000 48.15101
646 1 1 50.44500 0.00000 49.35479
647 1 1 52.53000 0.00000 4.81510
648 1 1 53.22500 0.00000 6.01888
649 1 1 52.53000 0.00000 7.22265
650 1 1 53.22500 0.00000 8.42643
651 1 1 52.53000 0.00000 9.63020
652 1 1 53.22500 0.00000 10.83398
653 1 1 52.53000 0.00000 12.03775
654 1 1 53.22500 0.00000 13.24153
655 1 1 52.53000 0.00000 14.44530
656 1 1 53.22500 0.00000 15.64908
657 1 1 52.53000 0.00000 16.85285
658 1 1 53.22500 0.00000 18.05663
659 1 1 52.53000 0.00000 19.26040
660 1 1 53.22500 0.00000 20.46418
661 1 1 52.53000 0.00000 21.66796
662 1 1 53.22500 0.00000 22.87173
663 1 1 52.53000 0.00000 24.07551
664 1 1 53.22500 0.00000 25.27928
665 1 1 52.53000 0.00000 26.48306
666 1 1 53.22500 0.00000 27.68683
667 1 1 52.53000 0.00000 28.89061
668 1 1 53.22500 0.00000 30.09438
669 1 1 52.53000 0.00000 31.29816
670 1 1 53.22500 0.00000 32.50193
671 1 1 52.53000 0.00000 33.70571
672 1 1 53.22500 0.00000 34.90948
673 1 1 52.53000 0.00000 36.11326
674 1 1 53.22500 0.00000 37.31703
675 1 1 52.53000 0.00000 38.52081
676 1 1 53.22500 0.00000 39.72459
677 1 1 52.53000 0.00000 40.92836
678 1 1 53.22500 0.00000 42.13214
679 1 1 52.53000 0.00000 43.33591
680 1 1 53.22500 0.00000 44.53969
681 1 1 52.53000 0.00000 45.74346
682 1 1 53.22500 0.00000 46.94724
683 1 1 52.53000 0.00000 48.15101
684 1 1 53.22500 0.00000 49.35479
685 1 1 55.31000 0.00000 4.81510
686 1 1 54.61500 0.00000 6.01888
687 1 1 55.31000 0.00000 7.22265
688 1 1 54.61500 0.00000 8.42643
689 1 1 55.31000 0.00000 9.63020
690 1 1 54.61500 0.00000 10.83398
691 1 1 55.31000 0.00000 12.03775
692 1 1 54.61500 0.00000 13.24153
693 1 1 55.31000 0.00000 14.44530
694 1 1 54.61500 0.00000 15.64908
695 1 1 55.31000 0.00000 16.85285
696 1 1 54.61500 0.00000 18.05663
697 1 1 55.31000 0.00000 19.26040
698 1 1 54.61500 0.00000 20.46418
699 1 1 55.31000 0.00000 21.66796
700 1 1 54.61500 0.00000 22.87173
701 1 1 55.31000 0.00000 24.07551
702 1 1 54.61500 0.00000 25.27928
703 1 1 55.31000 0.00000 26.48306
704 1 1 54.61500 0.00000 27.68683
705 1 1 55.31000 0.00000 28.89061
706 1 1 54.61500 0.00000 30.09438
707 1 1 55.31000 0.00000 31.29816
708 1 1 54.61500 0.00000 32.50193
709 1 1 55.31000 0.00000 33.70571
710 1 1 54.61500 0.00000 34.90948
711 1 1 55.31000 0.00000 36.11326
712 1 1 54.61500 0.00000 37.31703
713 1 1 55.31000 0.00000 38.52081
714 1 1 54.61500 0.00000 39.72459
715 1 1 55.31000 0.00000 40.92836
716 1 1 54.61500 0.00000 42.13214
717 1 1 55.31000 0.00000 43.33591
718 1 1 54.61500 0.00000 44.53969
719 1 1 55.31000 0.00000 45.74346
720 1 1 54.61500 0.00000 46.94724
721 1 1 55.31000 0.00000 48.15101
722 1 1 54.61500 0.00000 49.35479
723 2 1 15.00000 0.00000 0.00000
724 2 1 15.69500 0.00000 1.20378
725 2 1 15.00000 0.00000 2.40755
726 2 1 15.69500 0.00000 3.61133
727 2 1 15.00000 0.00000 4.81510
728 2 1 15.69500 0.00000 6.01888
729 2 1 15.00000 0.00000 7.22265
730 2 1 15.69500 0.00000 8.42643
731 2 1 15.00000 0.00000 9.63020
732 2 1 15.69500 0.00000 10.83398
733 2 1 15.00000 0.00000 12.03775
734 2 1 15.69500 0.00000 13.24153
735 2 1 15.00000 0.00000 14.44530
736 2 1 15.69500 0.00000 15.64908
737 2 1 15.00000 0.00000 16.85285
738 2 1 15.69500 0.00000 18.05663
739 2 1 15.00000 0.00000 19.26040
740 2 1 15.69500 0.00000 20.46418
741 2 1 15.00000 0.00000 21.66796
742 2 1 15.69500 0.00000 22.87173
743 2 1 15.00000 0.00000 24.07551
744 2 1 15.69500 0.00000 25.27928
745 2 1 15.00000 0.00000 26.48306
746 2 1 15.69500 0.00000 27.68683
747 2 1 15.00000 0.00000 28.89061
748 2 1 15.69500 0.00000 30.09438
749 2 1 15.00000 0.00000 31.29816
750 2 1 15.69500 0.00000 32.50193
751 2 1 15.00000 0.00000 33.70571
752 2 1 15.69500 0.00000 34.90948
753 2 1 15.00000 0.00000 36.11326
754 2 1 15.69500 0.00000 37.31703
755 2 1 15.00000 0.00000 38.52081
756 2 1 15.69500 0.00000 39.72459
757 2 1 15.00000 0.00000 40.92836
758 2 1 15.69500 0.00000 42.13214
759 2 1 15.00000 0.00000 43.33591
760 2 1 15.69500 0.00000 44.53969
761 2 1 15.00000 0.00000 45.74346
762 2 1 15.69500 0.00000 46.94724
763 2 1 15.00000 0.00000 48.15101
764 2 1 15.69500 0.00000 49.35479
765 2 1 15.00000 0.00000 50.55856
766 2 1 15.69500 0.00000 51.76234
767 2 1 15.00000 0.00000 52.96611
768 2 1 15.69500 0.00000 54.16989
769 2 1 17.08500 0.00000 1.20378
770 2 1 17.78000 0.00000 2.40755
771 2 1 17.08500 0.00000 3.61133
772 2 1 17.78000 0.00000 50.55856
773 2 1 17.08500 0.00000 51.76234
774 2 1 17.78000 0.00000 52.96611
775 2 1 17.08500 0.00000 54.16989
776 2 1 17.78000 0.00000 0.00000
777 2 1 19.17000 0.00000 0.00000
778 2 1 19.86500 0.00000 1.20378
779 2 1 19.17000 0.00000 2.40755
780 2 1 19.86500 0.00000 3.61133
781 2 1 19.17000 0.00000 50.55856
782 2 1 19.86500 0.00000 51.76234
783 2 1 19.17000 0.00000 52.96611
784 2 1 19.86500 0.00000 54.16989
785 2 1 21.25500 0.00000 1.20378
786 2 1 21.95000 0.00000 2.40755
787 2 1 21.25500 0.00000 3.61133
788 2 1 21.95000 0.00000 50.55856
789 2 1 21.25500 0.00000 51.76234
790 2 1 21.95000 0.00000 52.96611
791 2 1 21.25500 0.00000 54.16989
792 2 1 21.95000 0.00000 0.00000
793 2 1 23.34000 0.00000 0.00000
794 2 1 24.03500 0.00000 1.20378
795 2 1 23.34000 0.00000 2.40755
796 2 1 24.03500 0.00000 3.61133
797 2 1 23.34000 0.00000 50.55856
798 2 1 24.03500 0.00000 51.76234
799 2 1 23.34000 0.00000 52.96611
800 2 1 24.03500 0.00000 54.16989
801 2 1 25.42500 0.00000 1.20378
802 2 1 26.12000 0.00000 2.40755
803 2 1 25.42500 0.00000 3.61133
804 2 1 26.12000 0.00000 50.55856
805 2 1 25.42500 0.00000 51.76234
806 2 1 26.12000 0.00000 52.96611
807 2 1 25.42500 0.00000 54.16989
808 2 1 26.12000 0.00000 0.00000
809 2 1 27.51000 0.00000 0.00000
810 2 1 28.20500 0.00000 1.20378
811 2 1 27.51000 0.00000 2.40755
812 2 1 28.20500 0.00000 3.61133
813 2 1 27.51000 0.00000 50.55856
814 2 1 28.20500 0.00000 51.76234
815 2 1 27.51000 0.00000 52.96611
816 2 1 28.20500 0.00000 54.16989
817 2 1 29.59500 0.00000 1.20378
818 2 1 30.29000 0.00000 2.40755
819 2 1 29.59500 0.00000 3.61133
820 2 1 30.29000 0.00000 50.55856
821 2 1 29.59500 0.00000 51.76234
822 2 1 30.29000 0.00000 52.96611
823 2 1 29.59500 0.00000 54.16989
824 2 1 30.29000 0.00000 0.00000
825 2 1 31.68000 0.00000 0.00000
826 2 1 32.37500 0.00000 1.20378
827 2 1 31.68000 0.00000 2.40755
828 2 1 32.37500 0.00000 3.61133
829 2 1 31.68000 0.00000 50.55856
830 2 1 32.37500 0.00000 51.76234
831 2 1 31.68000 0.00000 52.96611
832 2 1 32.37500 0.00000 54.16989
833 2 1 33.76500 0.00000 1.20378
834 2 1 34.46000 0.00000 2.40755
835 2 1 33.76500 0.00000 3.61133
836 2 1 34.46000 0.00000 50.55856
837 2 1 33.76500 0.00000 51.76234
838 2 1 34.46000 0.00000 52.96611
839 2 1 33.76500 0.00000 54.16989
840 2 1 34.46000 0.00000 0.00000
841 2 1 35.85000 0.00000 0.00000
842 2 1 36.54500 0.00000 1.20378
843 2 1 35.85000 0.00000 2.40755
844 2 1 36.54500 0.00000 3.61133
845 2 1 35.85000 0.00000 50.55856
846 2 1 36.54500 0.00000 51.76234
847 2 1 35.85000 0.00000 52.96611
848 2 1 36.54500 0.00000 54.16989
849 2 1 37.93500 0.00000 1.20378
850 2 1 38.63000 0.00000 2.40755
851 2 1 37.93500 0.00000 3.61133
852 2 1 38.63000 0.00000 50.55856
853 2 1 37.93500 0.00000 51.76234
854 2 1 38.63000 0.00000 52.96611
855 2 1 37.93500 0.00000 54.16989
856 2 1 38.63000 0.00000 0.00000
857 2 1 40.02000 0.00000 0.00000
858 2 1 40.71500 0.00000 1.20378
859 2 1 40.02000 0.00000 2.40755
860 2 1 40.71500 0.00000 3.61133
861 2 1 40.02000 0.00000 50.55856
862 2 1 40.71500 0.00000 51.76234
863 2 1 40.02000 0.00000 52.96611
864 2 1 40.71500 0.00000 54.16989
865 2 1 42.10500 0.00000 1.20378
866 2 1 42.80000 0.00000 2.40755
867 2 1 42.10500 0.00000 3.61133
868 2 1 42.80000 0.00000 50.55856
869 2 1 42.10500 0.00000 51.76234
870 2 1 42.80000 0.00000 52.96611
871 2 1 42.10500 0.00000 54.16989
872 2 1 42.80000 0.00000 0.00000
873 2 1 44.19000 0.00000 0.00000
874 2 1 44.88500 0.00000 1.20378
875 2 1 44.19000 0.00000 2.40755
876 2 1 44.88500 0.00000 3.61133
877 2 1 44.19000 0.00000 50.55856
878 2 1 44.88500 0.00000 51.76234
879 2 1 44.19000 0.00000 52.96611
880 2 1 44.88500 0.00000 54.16989
881 2 1 46.27500 0.00000 1.20378
882 2 1 46.97000 0.00000 2.40755
883 2 1 46.27500 0.00000 3.61133
884 2 1 46.97000 0.00000 50.55856
885 2 1 46.27500 0.00000 51.76234
886 2 1 46.97000 0.00000 52.96611
887 2 1 46.27500 0.00000 54.16989
888 2 1 46.97000 0.00000 0.00000
889 2 1 48.36000 0.00000 0.00000
890 2 1 49.05500 0.00000 1.20378
891 2 1 48.36000 0.00000 2.40755
892 2 1 49.05500 0.00000 3.61133
893 2 1 48.36000 0.00000 50.55856
894 2 1 49.05500 0.00000 51.76234
895 2 1 48.36000 0.00000 52.96611
896 2 1 49.05500 0.00000 54.16989
897 2 1 50.44500 0.00000 1.20378
898 2 1 51.14000 0.00000 2.40755
899 2 1 50.44500 0.00000 3.61133
900 2 1 51.14000 0.00000 50.55856
901 2 1 50.44500 0.00000 51.76234
902 2 1 51.14000 0.00000 52.96611
903 2 1 50.44500 0.00000 54.16989
904 2 1 51.14000 0.00000 0.00000
905 2 1 52.53000 0.00000 0.00000
906 2 1 53.22500 0.00000 1.20378
907 2 1 52.53000 0.00000 2.40755
908 2 1 53.22500 0.00000 3.61133
909 2 1 52.53000 0.00000 50.55856
910 2 1 53.22500 0.00000 51.76234
911 2 1 52.53000 0.00000 52.96611
912 2 1 53.22500 0.00000 54.16989
913 2 1 54.61500 0.00000 1.20378
914 2 1 55.31000 0.00000 2.40755
915 2 1 54.61500 0.00000 3.61133
916 2 1 55.31000 0.00000 50.55856
917 2 1 54.61500 0.00000 51.76234
918 2 1 55.31000 0.00000 52.96611
919 2 1 54.61500 0.00000 54.16989
920 2 1 55.31000 0.00000 0.00000
921 2 1 56.70000 0.00000 0.00000
922 2 1 57.39500 0.00000 1.20378
923 2 1 56.70000 0.00000 2.40755
924 2 1 57.39500 0.00000 3.61133
925 2 1 56.70000 0.00000 4.81510
926 2 1 57.39500 0.00000 6.01888
927 2 1 56.70000 0.00000 7.22265
928 2 1 57.39500 0.00000 8.42643
929 2 1 56.70000 0.00000 9.63020
930 2 1 57.39500 0.00000 10.83398
931 2 1 56.70000 0.00000 12.03775
932 2 1 57.39500 0.00000 13.24153
933 2 1 56.70000 0.00000 14.44530
934 2 1 57.39500 0.00000 15.64908
935 2 1 56.70000 0.00000 16.85285
936 2 1 57.39500 0.00000 18.05663
937 2 1 56.70000 0.00000 19.26040
938 2 1 57.39500 0.00000 20.46418
939 2 1 56.70000 0.00000 21.66796
940 2 1 57.39500 0.00000 22.87173
941 2 1 56.70000 0.00000 24.07551
942 2 1 57.39500 0.00000 25.27928
943 2 1 56.70000 0.00000 26.48306
944 2 1 57.39500 0.00000 27.68683
945 2 1 56.70000 0.00000 28.89061
946 2 1 57.39500 0.00000 30.09438
947 2 1 56.70000 0.00000 31.29816
948 2 1 57.39500 0.00000 32.50193
949 2 1 56.70000 0.00000 33.70571
950 2 1 57.39500 0.00000 34.90948
951 2 1 56.70000 0.00000 36.11326
952 2 1 57.39500 0.00000 37.31703
953 2 1 56.70000 0.00000 38.52081
954 2 1 57.39500 0.00000 39.72459
955 2 1 56.70000 0.00000 40.92836
956 2 1 57.39500 0.00000 42.13214
957 2 1 56.70000 0.00000 43.33591
958 2 1 57.39500 0.00000 44.53969
959 2 1 56.70000 0.00000 45.74346
960 2 1 57.39500 0.00000 46.94724
961 2 1 56.70000 0.00000 48.15101
962 2 1 57.39500 0.00000 49.35479
963 2 1 56.70000 0.00000 50.55856
964 2 1 57.39500 0.00000 51.76234
965 2 1 56.70000 0.00000 52.96611
966 2 1 57.39500 0.00000 54.16989
