LAMMPS (22 Jul 2025 - Update 5)
  using 4 OpenMP thread(s) per MPI task
# graphene thermal vibration run, generated by graphene_defect_ml

units metal
dimension 3
boundary p f p
atom_style molecular
read_data sheet.data
Reading data file ...
  orthogonal box = (1.655 -12.5 -7.33049) to (71.655 12.5 62.66951)
  1 by 1 by 1 MPI processor grid
  reading atoms ...
  966 atoms
Finding 1-2 1-3 1-4 neighbors ...
  special bond factors lj:    0        0        0       
  special bond factors coul:  0        0        0       
     0 = max # of 1-2 neighbors
     0 = max # of 1-3 neighbors
     0 = max # of 1-4 neighbors
     1 = max # of special neighbors
  special bonds CPU = 0.000 seconds
  read_data CPU = 0.009 seconds

group free molecule 1
722 atoms in group free
group fixed molecule 2
244 atoms in group fixed

pair_style airebo 2.0
pair_coeff * * CH_modified.airebo C
Reading airebo potential file CH_modified.airebo with DATE: 2011-10-25

velocity free create 300.0 12345 mom yes rot yes dist gaussian
velocity fixed set 0.0 0.0 0.0

fix freeze fixed setforce 0.0 0.0 0.0

compute freetemp free temp

timestep 0.001
thermo 1000
thermo_style custom step c_freetemp pe etotal press

#==== Stage 1: NVT relax, 10 ps ====
dump relax_full all custom 50 relax_structure.lammpstrj id x y z
dump_modify relax_full sort id
fix nvt_relax free nvt temp 300.0 300.0 0.1
run 10000
Neighbor list info ...
  update: every = 1 steps, delay = 0 steps, check = yes
  max neighbors/atom: 2000, page size: 100000
  master list distance cutoff = 9.816371
  ghost atom cutoff = 9.816371
  binsize = 4.9081855, bins = 15 6 15
  1 neighbor lists, perpetual/occasional/extra = 1 0 0
  (1) pair airebo, perpetual
      attributes: full, newton on, ghost
      pair build: full/bin/ghost
      stencil: full/ghost/bin/3d
      bin: standard
Per MPI rank memory allocation (min/avg/max) = 10.5 | 10.5 | 10.5 Mbytes
   Step       c_freetemp       PotEng         TotEng         Press     
         0   300           -6933.4461     -6905.4872     -7891.7825    
      1000   284.22134     -6907.167      -6880.6786     -7800.775     
      2000   314.96181     -6905.9748     -6876.6215     -7765.1816    
      3000   302.82827     -6906.2998     -6878.0773     -7770.8654    
      4000   278.33844     -6906.7488     -6880.8086     -7778.2677    
      5000   312.88808     -6907.0454     -6877.8853     -7762.4992    
      6000   290.35454     -6905.6238     -6878.5638     -7893.4702    
      7000   307.56591     -6906.8441     -6878.18       -7798.8489    
      8000   292.45818     -6906.8827     -6879.6266     -7840.6552    
      9000   295.51869     -6905.7488     -6878.2075     -7812.8878    
     10000   307.68975     -6906.0759     -6877.4003     -7827.0325    
Loop time of 42.4119 on 4 procs for 10000 steps with 966 atoms

Performance: 20.372 ns/day, 1.178 hours/ns, 235.783 timesteps/s, 227.766 katom-step/s
99.9% CPU use with 1 MPI tasks x 4 OpenMP threads

MPI task timing breakdown:
Section |  min time  |  avg time  |  max time  |%varavg| %total
---------------------------------------------------------------
Pair    | 41.981     | 41.981     | 41.981     |   0.0 | 98.98
Bond    | 0.00064188 | 0.00064188 | 0.00064188 |   0.0 |  0.00
Neigh   | 0          | 0          | 0          |   0.0 |  0.00
Comm    | 0.0077174  | 0.0077174  | 0.0077174  |   0.0 |  0.02
Output  | 0.24699    | 0.24699    | 0.24699    |   0.0 |  0.58
Modify  | 0.14445    | 0.14445    | 0.14445    |   0.0 |  0.34
Other   |            | 0.03142    |            |       |  0.07

Nlocal:            966 ave         966 max         966 min
Histogram: 1 0 0 0 0 0 0 0 0 0
Nghost:            126 ave         126 max         126 min
Histogram: 1 0 0 0 0 0 0 0 0 0
Neighs:              0 ave           0 max           0 min
Histogram: 1 0 0 0 0 0 0 0 0 0
FullNghs:        87972 ave       87972 max       87972 min
Histogram: 1 0 0 0 0 0 0 0 0 0

Total # of neighbors = 87972
Ave neighs/atom = 91.068323
Ave special neighs/atom = 0
Neighbor list builds = 0
Dangerous builds = 0
unfix nvt_relax
undump relax_full

#=== Stage 2: NVT vibrate, 30 ps, dump out-of-plane displacement ====
compute ydisp free displace/atom
dump vib free custom 50 vibration.lammpstrj id x y z c_ydisp[2]
dump_modify vib sort id
dump full_struct all custom 50 full_structure.lammpstrj id x y z
dump_modify full_struct sort id
fix nvt_vibrate free nvt temp 300.0 300.0 0.1
run 30000
Per MPI rank memory allocation (min/avg/max) = 10.88 | 10.88 | 10.88 Mbytes
   Step       c_freetemp       PotEng         TotEng         Press     
     10000   307.68975     -6906.0759     -6877.4003     -7827.0325    
     11000   289.45362     -6905.3629     -6878.3868     -7816.1       
     12000   317.97938     -6905.4996     -6875.865      -7750.3355    
     13000   306.02768     -6906.5815     -6878.0607     -7772.3074    
     14000   307.99653     -6906.1818     -6877.4776     -7761.1549    
     15000   307.24463     -6905.9925     -6877.3584     -7751.0484    
     16000   289.16677     -6907.4653     -6880.516      -7863.4783    
     17000   313.00461     -6907.5142     -6878.3433     -7769.4388    
     18000   308.62107     -6905.7276     -6876.9652     -7782.4177    
     19000   290.48746     -6905.8922     -6878.8197     -7779.4235    
     20000   309.33379     -6905.4821     -6876.6533     -7740.0786    
     21000   297.54292     -6906.8085     -6879.0785     -7787.8279    
     22000   298.73837     -6905.0159     -6877.1745     -7846.5764    
     23000   324.04612     -6906.3979     -6876.1979     -7768.6611    
     24000   282.22147     -6905.7173     -6879.4153     -7827.4954    
     25000   300.43094     -6905.2539     -6877.2547     -7774.2244    
     26000   284.02856     -6906.3858     -6879.9153     -7748.8955    
     27000   296.83385     -6905.8657     -6878.2018     -7787.2698    
     28000   297.04024     -6906.6596     -6878.9765     -7722.1815    
     29000   298.33299     -6906.1496     -6878.346      -7699.6137    
     30000   306.93946     -6905.5019     -6876.8962     -7721.4136    
     31000   297.4435      -6905.3994     -6877.6787     -7782.0618    
     32000   295.46192     -6905.9584     -6878.4224     -7801.043     
     33000   308.07115     -6905.7591     -6877.0479     -7802.0357    
     34000   306.65916     -6907.1335     -6878.554      -7853.8571    
     35000   302.01749     -6906.1732     -6878.0262     -7812.2141    
     36000   290.18798     -6906.5671     -6879.5226     -7842.3568    
     37000   315.82068     -6906.6155     -6877.1821     -7840.1386    
     38000   295.28511     -6906.5311     -6879.0116     -7848.8172    
     39000   307.64706     -6906.1908     -6877.5192     -7868.0837    
     40000   307.65529     -6905.1204     -6876.448      -7776.6799    
Loop time of 130.599 on 4 procs for 30000 steps with 966 atoms

Performance: 19.847 ns/day, 1.209 hours/ns, 229.711 timesteps/s, 221.900 katom-step/s
99.8% CPU use with 1 MPI tasks x 4 OpenMP threads

MPI task timing breakdown:
Section |  min time  |  avg time  |  max time  |%varavg| %total
---------------------------------------------------------------
Pair    | 128.46     | 128.46     | 128.46     |   0.0 | 98.36
Bond    | 0.0023012  | 0.0023012  | 0.0023012  |   0.0 |  0.00
Neigh   | 0.0016694  | 0.0016694  | 0.0016694  |   0.0 |  0.00
Comm    | 0.025552   | 0.025552   | 0.025552   |   0.0 |  0.02
Output  | 1.5596     | 1.5596     | 1.5596     |   0.0 |  1.19
Modify  | 0.44666    | 0.44666    | 0.44666    |   0.0 |  0.34
Other   |            | 0.09975    |            |       |  0.08

Nlocal:            966 ave         966 max         966 min
Histogram: 1 0 0 0 0 0 0 0 0 0
Nghost:            126 ave         126 max         126 min
Histogram: 1 0 0 0 0 0 0 0 0 0
Neighs:              0 ave           0 max           0 min
Histogram: 1 0 0 0 0 0 0 0 0 0
FullNghs:        89136 ave       89136 max       89136 min
Histogram: 1 0 0 0 0 0 0 0 0 0

Total # of neighbors = 89136
Ave neighs/atom = 92.273292
Ave special neighs/atom = 0
Neighbor list builds = 1
Dangerous builds = 0
unfix nvt_vibrate
Total wall time: 0:02:53
