# graphene sheet, generated by graphene_defect_ml

966 atoms
1 atom types

1.65500 71.65500 xlo xhi
-12.50000 12.50000 ylo yhi
-7.33049 62.66951 zlo zhi

Masses

1 12.0107

Atoms # molecular

1 1 1 17.84000 0.00000 4.91902
2 1 1 17.13000 0.00000 6.14878
3 1 1 17.84000 0.00000 7.37854
4 1 1 17.13000 0.00000 8.60829
5 1 1 17.84000 0.00000 9.83805
6 1 1 17.13000 0.00000 11.06780
7 1 1 17.84000 0.00000 12.29756
8 1 1 17.13000 0.00000 13.52732
9 1 1 17.84000 0.00000 14.75707
10 1 1 17.13000 0.00000 15.98683
11 1 1 17.84000 0.00000 17.21659
12 1 1 17.13000 0.00000 18.44634
13 1 1 17.84000 0.00000 19.67610
14 1 1 17.13000 0.00000 20.90585
15 1 1 17.84000 0.00000 22.13561
16 1 1 17.13000 0.00000 23.36537
17 1 1 17.84000 0.00000 24.59512
18 1 1 17.13000 0.00000 25.82488
19 1 1 17.84000 0.00000 27.05463
20 1 1 17.13000 0.00000 28.28439
21 1 1 17.84000 0.00000 29.51415
22 1 1 17.13000 0.00000 30.74390
23 1 1 17.84000 0.00000 31.97366
24 1 1 17.13000 0.00000 33.20341
25 1 1 17.84000 0.00000 34.43317
26 1 1 17.13000 0.00000 35.66293
27 1 1 17.84000 0.00000 36.89268
28 1 1 17.13000 0.00000 38.12244
29 1 1 17.84000 0.00000 39.35219
30 1 1 17.13000 0.00000 40.58195
31 1 1 17.84000 0.00000 41.81171
32 1 1 17.13000 0.00000 43.04146
33 1 1 17.84000 0.00000 44.27122
34 1 1 17.13000 0.00000 45.50097
35 1 1 17.84000 0.00000 46.73073
36 1 1 17.13000 0.00000 47.96049
37 1 1 17.84000 0.00000 49.19024
38 1 1 17.13000 0.00000 50.42000
39 1 1 19.26000 0.00000 4.91902
40 1 1 19.97000 0.00000 6.14878
41 1 1 19.26000 0.00000 7.37854
42 1 1 19.97000 0.00000 8.60829
43 1 1 19.26000 0.00000 9.83805
44 1 1 19.97000 0.00000 11.06780
45 1 1 19.26000 0.00000 12.29756
46 1 1 19.97000 0.00000 13.52732
47 1 1 19.26000 0.00000 14.75707
48 1 1 19.97000 0.00000 15.98683
49 1 1 19.26000 0.00000 17.21659
50 1 1 19.97000 0.00000 18.44634
51 1 1 19.26000 0.00000 19.67610
52 1 1 19.97000 0.00000 20.90585
53 1 1 19.26000 0.00000 22.13561
54 1 1 19.97000 0.00000 23.36537
55 1 1 19.26000 0.00000 24.59512
56 1 1 19.97000 0.00000 25.82488
57 1 1 19.26000 0.00000 27.05463
58 1 1 19.97000 0.00000 28.28439
59 1 1 19.26000 0.00000 29.51415
60 1 1 19.97000 0.00000 30.74390
61 1 1 19.26000 0.00000 31.97366
62 1 1 19.97000 0.00000 33.20341
63 1 1 19.26000 0.00000 34.43317
64 1 1 19.97000 0.00000 35.66293
65 1 1 19.26000 0.00000 36.89268
66 1 1 19.97000 0.00000 38.12244
67 1 1 19.26000 0.00000 39.35219
68 1 1 19.97000 0.00000 40.58195
69 1 1 19.26000 0.00000 41.81171
70 1 1 19.97000 0.00000 43.04146
71 1 1 19.26000 0.00000 44.27122
72 1 1 19.97000 0.00000 45.50097
73 1 1 19.26000 0.00000 46.73073
74 1 1 19.97000 0.00000 47.96049
75 1 1 19.26000 0.00000 49.19024
76 1 1 19.97000 0.00000 50.42000
77 1 1 22.10000 0.00000 4.91902
78 1 1 21.39000 0.00000 6.14878
79 1 1 22.10000 0.00000 7.37854
80 1 1 21.39000 0.00000 8.60829
81 1 1 22.10000 0.00000 9.83805
82 1 1 21.39000 0.00000 11.06780
83 1 1 22.10000 0.00000 12.29756
84 1 1 21.39000 0.00000 13.52732
85 1 1 22.10000 0.00000 14.75707
86 1 1 21.39000 0.00000 15.98683
87 1 1 22.10000 0.00000 17.21659
88 1 1 21.39000 0.00000 18.44634
89 1 1 22.10000 0.00000 19.67610
90 1 1 21.39000 0.00000 20.90585
91 1 1 22.10000 0.00000 22.13561
92 1 1 21.39000 0.00000 23.36537
93 1 1 22.10000 0.00000 24.59512
94 1 1 21.39000 0.00000 25.82488
95 1 1 22.10000 0.00000 27.05463
96 1 1 21.39000 0.00000 28.28439
97 1 1 22.10000 0.00000 29.51415
98 1 1 21.39000 0.00000 30.74390
99 1 1 22.10000 0.00000 31.97366
100 1 1 21.39000 0.00000 33.20341
101 1 1 22.10000 0.00000 34.43317
102 1 1 21.39000 0.00000 35.66293
103 1 1 22.10000 0.00000 36.89268
104 1 1 21.39000 0.00000 38.12244
105 1 1 22.10000 0.00000 39.35219
106 1 1 21.39000 0.00000 40.58195
107 1 1 22.10000 0.00000 41.81171
108 1 1 21.39000 0.00000 43.04146
109 1 1 22.10000 0.00000 44.27122
110 1 1 21.39000 0.00000 45.50097
111 1 1 22.10000 0.00000 46.73073
112 1 1 21.39000 0.00000 47.96049
113 1 1 22.10000 0.00000 49.19024
114 1 1 21.39000 0.00000 50.42000
115 1 1 23.52000 0.00000 4.91902
116 1 1 24.23000 0.00000 6.14878
117 1 1 23.52000 0.00000 7.37854
118 1 1 24.23000 0.00000 8.60829
119 1 1 23.52000 0.00000 9.83805
120 1 1 24.23000 0.00000 11.06780
121 1 1 23.52000 0.00000 12.29756
122 1 1 24.23000 0.00000 13.52732
123 1 1 23.52000 0.00000 14.75707
124 1 1 24.23000 0.00000 15.98683
125 1 1 23.52000 0.00000 17.21659
126 1 1 24.23000 0.00000 18.44634
127 1 1 23.52000 0.00000 19.67610
128 1 1 24.23000 0.00000 20.90585
129 1 1 23.52000 0.00000 22.13561
130 1 1 24.23000 0.00000 23.36537
131 1 1 23.52000 0.00000 24.59512
132 1 1 24.23000 0.00000 25.82488
133 1 1 23.52000 0.00000 27.05463
134 1 1 24.23000 0.00000 28.28439
135 1 1 23.52000 0.00000 29.51415
136 1 1 24.23000 0.00000 30.74390
137 1 1 23.52000 0.00000 31.97366
138 1 1 24.23000 0.00000 33.20341
139 1 1 23.52000 0.00000 34.43317
140 1 1 24.23000 0.00000 35.66293
141 1 1 23.52000 0.00000 36.89268
142 1 1 24.23000 0.00000 38.12244
143 1 1 23.52000 0.00000 39.35219
144 1 1 24.23000 0.00000 40.58195
145 1 1 23.52000 0.00000 41.81171
146 1 1 24.23000 0.00000 43.04146
147 1 1 23.52000 0.00000 44.27122
148 1 1 24.23000 0.00000 45.50097
149 1 1 23.52000 0.00000 46.73073
150 1 1 24.23000 0.00000 47.96049
151 1 1 23.52000 0.00000 49.19024
152 1 1 24.23000 0.00000 50.42000
153 1 1 26.36000 0.00000 4.91902
154 1 1 25.65000 0.00000 6.14878
155 1 1 26.36000 0.00000 7.37854
156 1 1 25.65000 0.00000 8.60829
157 1 1 26.36000 0.00000 9.83805
158 1 1 25.65000 0.00000 11.06780
159 1 1 26.36000 0.00000 12.29756
160 1 1 25.65000 0.00000 13.52732
161 1 1 26.36000 0.00000 14.75707
162 1 1 25.65000 0.00000 15.98683
163 1 1 26.36000 0.00000 17.21659
164 1 1 25.65000 0.00000 18.44634
165 1 1 26.36000 0.00000 19.67610
166 1 1 25.65000 0.00000 20.90585
167 1 1 26.36000 0.00000 22.13561
168 1 1 25.65000 0.00000 23.36537
169 1 1 26.36000 0.00000 24.59512
170 1 1 25.65000 0.00000 25.82488
171 1 1 26.36000 0.00000 27.05463
172 1 1 25.65000 0.00000 28.28439
173 1 1 26.36000 0.00000 29.51415
174 1 1 25.65000 0.00000 30.74390
175 1 1 26.36000 0.00000 31.97366
176 1 1 25.65000 0.00000 33.20341
177 1 1 26.36000 0.00000 34.43317
178 1 1 25.65000 0.00000 35.66293
179 1 1 26.36000 0.00000 36.89268
180 1 1 25.65000 0.00000 38.12244
181 1 1 26.36000 0.00000 39.35219
182 1 1 25.65000 0.00000 40.58195
183 1 1 26.36000 0.00000 41.81171
184 1 1 25.65000 0.00000 43.04146
185 1 1 26.36000 0.00000 44.27122
186 1 1 25.65000 0.00000 45.50097
187 1 1 26.36000 0.00000 46.73073
188 1 1 25.65000 0.00000 47.96049
189 1 1 26.36000 0.00000 49.19024
190 1 1 25.65000 0.00000 50.42000
191 1 1 27.78000 0.00000 4.91902
192 1 1 28.49000 0.00000 6.14878
193 1 1 27.78000 0.00000 7.37854
194 1 1 28.49000 0.00000 8.60829
195 1 1 27.78000 0.00000 9.83805
196 1 1 28.49000 0.00000 11.06780
197 1 1 27.78000 0.00000 12.29756
198 1 1 28.49000 0.00000 13.52732
199 1 1 27.78000 0.00000 14.75707
200 1 1 28.49000 0.00000 15.98683
201 1 1 27.78000 0.00000 17.21659
202 1 1 28.49000 0.00000 18.44634
203 1 1 27.78000 0.00000 19.67610
204 1 1 28.49000 0.00000 20.90585
205 1 1 27.78000 0.00000 22.13561
206 1 1 28.49000 0.00000 23.36537
207 1 1 27.78000 0.00000 24.59512
208 1 1 28.49000 0.00000 25.82488
209 1 1 27.78000 0.00000 27.05463
210 1 1 28.49000 0.00000 28.28439
211 1 1 27.78000 0.00000 29.51415
212 1 1 28.49000 0.00000 30.74390
213 1 1 27.78000 0.00000 31.97366
214 1 1 28.49000 0.00000 33.20341
215 1 1 27.78000 0.00000 34.43317
216 1 1 28.49000 0.00000 35.66293
217 1 1 27.78000 0.00000 36.89268
218 1 1 28.49000 0.00000 38.12244
219 1 1 27.78000 0.00000 39.35219
220 1 1 28.49000 0.00000 40.58195
221 1 1 27.78000 0.00000 41.81171
222 1 1 28.49000 0.00000 43.04146
223 1 1 27.78000 0.00000 44.27122
224 1 1 28.49000 0.00000 45.50097
225 1 1 27.78000 0.00000 46.73073
226 1 1 28.49000 0.00000 47.96049
227 1 1 27.78000 0.00000 49.19024
228 1 1 28.49000 0.00000 50.42000
229 1 1 30.62000 0.00000 4.91902
230 1 1 29.91000 0.00000 6.14878
231 1 1 30.62000 0.00000 7.37854
232 1 1 29.91000 0.00000 8.60829
233 1 1 30.62000 0.00000 9.83805
234 1 1 29.91000 0.00000 11.06780
235 1 1 30.62000 0.00000 12.29756
236 1 1 29.91000 0.00000 13.52732
237 1 1 30.62000 0.00000 14.75707
238 1 1 29.91000 0.00000 15.98683
239 1 1 30.62000 0.00000 17.21659
240 1 1 29.91000 0.00000 18.44634
241 1 1 30.62000 0.00000 19.67610
242 1 1 29.91000 0.00000 20.90585
243 1 1 30.62000 0.00000 22.13561
244 1 1 29.91000 0.00000 23.36537
245 1 1 30.62000 0.00000 24.59512
246 1 1 29.91000 0.00000 25.82488
247 1 1 30.62000 0.00000 27.05463
248 1 1 29.91000 0.00000 28.28439
249 1 1 30.62000 0.00000 29.51415
250 1 1 29.91000 0.00000 30.74390
251 1 1 30.62000 0.00000 31.97366
252 1 1 29.91000 0.00000 33.20341
253 1 1 30.62000 0.00000 34.43317
254 1 1 29.91000 0.00000 35.66293
255 1 1 30.62000 0.00000 36.89268
256 1 1 29.91000 0.00000 38.12244
257 1 1 30.62000 0.00000 39.35219
258 1 1 29.91000 0.00000 40.58195
259 1 1 30.62000 0.00000 41.81171
260 1 1 29.91000 0.00000 43.04146
261 1 1 30.62000 0.00000 44.27122
262 1 1 29.91000 0.00000 45.50097
263 1 1 30.62000 0.00000 46.73073
264 1 1 29.91000 0.00000 47.96049
265 1 1 30.62000 0.00000 49.19024
266 1 1 29.91000 0.00000 50.42000
267 1 1 32.04000 0.00000 4.91902
268 1 1 32.75000 0.00000 6.14878
269 1 1 32.04000 0.00000 7.37854
270 1 1 32.75000 0.00000 8.60829
271 1 1 32.04000 0.00000 9.83805
272 1 1 32.75000 0.00000 11.06780
273 1 1 32.04000 0.00000 12.29756
274 1 1 32.75000 0.00000 13.52732
275 1 1 32.04000 0.00000 14.75707
276 1 1 32.75000 0.00000 15.98683
277 1 1 32.04000 0.00000 17.21659
278 1 1 32.75000 0.00000 18.44634
279 1 1 32.04000 0.00000 19.67610
280 1 1 32.75000 0.00000 20.90585
281 1 1 32.04000 0.00000 22.13561
282 1 1 32.75000 0.00000 23.36537
283 1 1 32.04000 0.00000 24.59512
284 1 1 32.75000 0.00000 25.82488
285 1 1 32.04000 0.00000 27.05463
286 1 1 32.75000 0.00000 28.28439
287 1 1 32.04000 0.00000 29.51415
288 1 1 32.75000 0.00000 30.74390
289 1 1 32.04000 0.00000 31.97366
290 1 1 32.75000 0.00000 33.20341
291 1 1 32.04000 0.00000 34.43317
292 1 1 32.75000 0.00000 35.66293
293 1 1 32.04000 0.00000 36.89268
294 1 1 32.75000 0.00000 38.12244
295 1 1 32.04000 0.00000 39.35219
296 1 1 32.75000 0.00000 40.58195
297 1 1 32.04000 0.00000 41.81171
298 1 1 32.75000 0.00000 43.04146
299 1 1 32.04000 0.00000 44.27122
300 1 1 32.75000 0.00000 45.50097
301 1 1 32.04000 0.00000 46.73073
302 1 1 32.75000 0.00000 47.96049
303 1 1 32.04000 0.00000 49.19024
304 1 1 32.75000 0.00000 50.42000
305 1 1 34.88000 0.00000 4.91902
306 1 1 34.17000 0.00000 6.14878
307 1 1 34.88000 0.00000 7.37854
308 1 1 34.17000 0.00000 8.60829
309 1 1 34.88000 0.00000 9.83805
310 1 1 34.17000 0.00000 11.06780
311 1 1 34.88000 0.00000 12.29756
312 1 1 34.17000 0.00000 13.52732
313 1 1 34.88000 0.00000 14.75707
314 1 1 34.17000 0.00000 15.98683
315 1 1 34.88000 0.00000 17.21659
316 1 1 34.17000 0.00000 18.44634
317 1 1 34.88000 0.00000 19.67610
318 1 1 34.17000 0.00000 20.90585
319 1 1 34.88000 0.00000 22.13561
320 1 1 34.17000 0.00000 23.36537
321 1 1 34.88000 0.00000 24.59512
322 1 1 34.17000 0.00000 25.82488
323 1 1 34.88000 0.00000 27.05463
324 1 1 34.17000 0.00000 28.28439
325 1 1 34.88000 0.00000 29.51415
326 1 1 34.17000 0.00000 30.74390
327 1 1 34.88000 0.00000 31.97366
328 1 1 34.17000 0.00000 33.20341
329 1 1 34.88000 0.00000 34.43317
330 1 1 34.17000 0.00000 35.66293
331 1 1 34.88000 0.00000 36.89268
332 1 1 34.17000 0.00000 38.12244
333 1 1 34.88000 0.00000 39.35219
334 1 1 34.17000 0.00000 40.58195
335 1 1 34.88000 0.00000 41.81171
336 1 1 34.17000 0.00000 43.04146
337 1 1 34.88000 0.00000 44.27122
338 1 1 34.17000 0.00000 45.50097
339 1 1 34.88000 0.00000 46.73073
340 1 1 34.17000 0.00000 47.96049
341 1 1 34.88000 0.00000 49.19024
342 1 1 34.17000 0.00000 50.42000
343 1 1 36.30000 0.00000 4.91902
344 1 1 37.01000 0.00000 6.14878
345 1 1 36.30000 0.00000 7.37854
346 1 1 37.01000 0.00000 8.60829
347 1 1 36.30000 0.00000 9.83805
348 1 1 37.01000 0.00000 11.06780
349 1 1 36.30000 0.00000 12.29756
350 1 1 37.01000 0.00000 13.52732
351 1 1 36.30000 0.00000 14.75707
352 1 1 37.01000 0.00000 15.98683
353 1 1 36.30000 0.00000 17.21659
354 1 1 37.01000 0.00000 18.44634
355 1 1 36.30000 0.00000 19.67610
356 1 1 37.01000 0.00000 20.90585
357 1 1 36.30000 0.00000 22.13561
358 1 1 37.01000 0.00000 23.36537
359 1 1 36.30000 0.00000 24.59512
360 1 1 37.01000 0.00000 25.82488
361 1 1 36.30000 0.00000 27.05463
362 1 1 37.01000 0.00000 28.28439
363 1 1 36.30000 0.00000 29.51415
364 1 1 37.01000 0.00000 30.74390
365 1 1 36.30000 0.00000 31.97366
366 1 1 37.01000 0.00000 33.20341
367 1 1 36.30000 0.00000 34.43317
368 1 1 37.01000 0.00000 35.66293
369 1 1 36.30000 0.00000 36.89268
370 1 1 37.01000 0.00000 38.12244
371 1 1 36.30000 0.00000 39.35219
372 1 1 37.01000 0.00000 40.58195
373 1 1 36.30000 0.00000 41.81171
374 1 1 37.01000 0.00000 43.04146
375 1 1 36.30000 0.00000 44.27122
376 1 1 37.01000 0.00000 45.50097
377 1 1 36.30000 0.00000 46.73073
378 1 1 37.01000 0.00000 47.96049
379 1 1 36.30000 0.00000 49.19024
380 1 1 37.01000 0.00000 50.42000
381 1 1 39.14000 0.00000 4.91902
382 1 1 38.43000 0.00000 6.14878
383 1 1 39.14000 0.00000 7.37854
384 1 1 38.43000 0.00000 8.60829
385 1 1 39.14000 0.00000 9.83805
386 1 1 38.43000 0.00000 11.06780
387 1 1 39.14000 0.00000 12.29756
388 1 1 38.43000 0.00000 13.52732
389 1 1 39.14000 0.00000 14.75707
390 1 1 38.43000 0.00000 15.98683
391 1 1 39.14000 0.00000 17.21659
392 1 1 38.43000 0.00000 18.44634
393 1 1 39.14000 0.00000 19.67610
394 1 1 38.43000 0.00000 20.90585
395 1 1 39.14000 0.00000 22.13561
396 1 1 38.43000 0.00000 23.36537
397 1 1 39.14000 0.00000 24.59512
398 1 1 38.43000 0.00000 25.82488
399 1 1 39.14000 0.00000 27.05463
400 1 1 38.43000 0.00000 28.28439
401 1 1 39.14000 0.00000 29.51415
402 1 1 38.43000 0.00000 30.74390
403 1 1 39.14000 0.00000 31.97366
404 1 1 38.43000 0.00000 33.20341
405 1 1 39.14000 0.00000 34.43317
406 1 1 38.43000 0.00000 35.66293
407 1 1 39.14000 0.00000 36.89268
408 1 1 38.43000 0.00000 38.12244
409 1 1 39.14000 0.00000 39.35219
410 1 1 38.43000 0.00000 40.58195
411 1 1 39.14000 0.00000 41.81171
412 1 1 38.43000 0.00000 43.04146
413 1 1 39.14000 0.00000 44.27122
414 1 1 38.43000 0.00000 45.50097
415 1 1 39.14000 0.00000 46.73073
416 1 1 38.43000 0.00000 47.96049
417 1 1 39.14000 0.00000 49.19024
418 1 1 38.43000 0.00000 50.42000
419 1 1 40.56000 0.00000 4.91902
420 1 1 41.27000 0.00000 6.14878
421 1 1 40.56000 0.00000 7.37854
422 1 1 41.27000 0.00000 8.60829
423 1 1 40.56000 0.00000 9.83805
424 1 1 41.27000 0.00000 11.06780
425 1 1 40.56000 0.00000 12.29756
426 1 1 41.27000 0.00000 13.52732
427 1 1 40.56000 0.00000 14.75707
428 1 1 41.27000 0.00000 15.98683
429 1 1 40.56000 0.00000 17.21659
430 1 1 41.27000 0.00000 18.44634
431 1 1 40.56000 0.00000 19.67610
432 1 1 41.27000 0.00000 20.90585
433 1 1 40.56000 0.00000 22.13561
434 1 1 41.27000 0.00000 23.36537
435 1 1 40.56000 0.00000 24.59512
436 1 1 41.27000 0.00000 25.82488
437 1 1 40.56000 0.00000 27.05463
438 1 1 41.27000 0.00000 28.28439
439 1 1 40.56000 0.00000 29.51415
440 1 1 41.27000 0.00000 30.74390
441 1 1 40.56000 0.00000 31.97366
442 1 1 41.27000 0.00000 33.20341
443 1 1 40.56000 0.00000 34.43317
444 1 1 41.27000 0.00000 35.66293
445 1 1 40.56000 0.00000 36.89268
446 1 1 41.27000 0.00000 38.12244
447 1 1 40.56000 0.00000 39.35219
448 1 1 41.27000 0.00000 40.58195
449 1 1 40.56000 0.00000 41.81171
450 1 1 41.27000 0.00000 43.04146
451 1 1 40.56000 0.00000 44.27122
452 1 1 41.27000 0.00000 45.50097
453 1 1 40.56000 0.00000 46.73073
454 1 1 41.27000 0.00000 47.96049
455 1 1 40.56000 0.00000 49.19024
456 1 1 41.27000 0.00000 50.42000
457 1 1 43.40000 0.00000 4.91902
458 1 1 42.69000 0.00000 6.14878
459 1 1 43.40000 0.00000 7.37854
460 1 1 42.69000 0.00000 8.60829
461 1 1 43.40000 0.00000 9.83805
462 1 1 42.69000 0.00000 11.06780
463 1 1 43.40000 0.00000 12.29756
464 1 1 42.69000 0.00000 13.52732
465 1 1 43.40000 0.00000 14.75707
466 1 1 42.69000 0.00000 15.98683
467 1 1 43.40000 0.00000 17.21659
468 1 1 42.69000 0.00000 18.44634
469 1 1 43.40000 0.00000 19.67610
470 1 1 42.69000 0.00000 20.90585
471 1 1 43.40000 0.00000 22.13561
472 1 1 42.69000 0.00000 23.36537
473 1 1 43.40000 0.00000 24.59512
474 1 1 42.69000 0.00000 25.82488
475 1 1 43.40000 0.00000 27.05463
476 1 1 42.69000 0.00000 28.28439
477 1 1 43.40000 0.00000 29.51415
478 1 1 42.69000 0.00000 30.74390
479 1 1 43.40000 0.00000 31.97366
480 1 1 42.69000 0.00000 33.20341
481 1 1 43.40000 0.00000 34.43317
482 1 1 42.69000 0.00000 35.66293
483 1 1 43.40000 0.00000 36.89268
484 1 1 42.69000 0.00000 38.12244
485 1 1 43.40000 0.00000 39.35219
486 1 1 42.69000 0.00000 40.58195
487 1 1 43.40000 0.00000 41.81171
488 1 1 42.69000 0.00000 43.04146
489 1 1 43.40000 0.00000 44.27122
490 1 1 42.69000 0.00000 45.50097
491 1 1 43.40000 0.00000 46.73073
492 1 1 42.69000 0.00000 47.96049
493 1 1 43.40000 0.00000 49.19024
494 1 1 42.69000 0.00000 50.42000
495 1 1 44.82000 0.00000 4.91902
496 1 1 45.53000 0.00000 6.14878
497 1 1 44.82000 0.00000 7.37854
498 1 1 45.53000 0.00000 8.60829
499 1 1 44.82000 0.00000 9.83805
500 1 1 45.53000 0.00000 11.06780
501 1 1 44.82000 0.00000 12.29756
502 1 1 45.53000 0.00000 13.52732
503 1 1 44.82000 0.00000 14.75707
504 1 1 45.53000 0.00000 15.98683
505 1 1 44.82000 0.00000 17.21659
506 1 1 45.53000 0.00000 18.44634
507 1 1 44.82000 0.00000 19.67610
508 1 1 45.53000 0.00000 20.90585
509 1 1 44.82000 0.00000 22.13561
510 1 1 45.53000 0.00000 23.36537
511 1 1 44.82000 0.00000 24.59512
512 1 1 45.53000 0.00000 25.82488
513 1 1 44.82000 0.00000 27.05463
514 1 1 45.53000 0.00000 28.28439
515 1 1 44.82000 0.00000 29.51415
516 1 1 45.53000 0.00000 30.74390
517 1 1 44.82000 0.00000 31.97366
518 1 1 45.53000 0.00000 33.20341
519 1 1 44.82000 0.00000 34.43317
520 1 1 45.53000 0.00000 35.66293
521 1 1 44.82000 0.00000 36.89268
522 1 1 45.53000 0.00000 38.12244
523 1 1 44.82000 0.00000 39.35219
524 1 1 45.53000 0.00000 40.58195
525 1 1 44.82000 0.00000 41.81171
526 1 1 45.53000 0.00000 43.04146
527 1 1 44.82000 0.00000 44.27122
528 1 1 45.53000 0.00000 45.50097
529 1 1 44.82000 0.00000 46.73073
530 1 1 45.53000 0.00000 47.96049
531 1 1 44.82000 0.00000 49.19024
532 1 1 45.53000 0.00000 50.42000
533 1 1 47.66000 0.00000 4.91902
534 1 1 46.95000 0.00000 6.14878
535 1 1 47.66000 0.00000 7.37854
536 1 1 46.95000 0.00000 8.60829
537 1 1 47.66000 0.00000 9.83805
538 1 1 46.95000 0.00000 11.06780
539 1 1 47.66000 0.00000 12.29756
540 1 1 46.95000 0.00000 13.52732
541 1 1 47.66000 0.00000 14.75707
542 1 1 46.95000 0.00000 15.98683
543 1 1 47.66000 0.00000 17.21659
544 1 1 46.95000 0.00000 18.44634
545 1 1 47.66000 0.00000 19.67610
546 1 1 46.95000 0.00000 20.90585
547 1 1 47.66000 0.00000 22.13561
548 1 1 46.95000 0.00000 23.36537
549 1 1 47.66000 0.00000 24.59512
550 1 1 46.95000 0.00000 25.82488
551 1 1 47.66000 0.00000 27.05463
552 1 1 46.95000 0.00000 28.28439
553 1 1 47.66000 0.00000 29.51415
554 1 1 46.95000 0.00000 30.74390
555 1 1 47.66000 0.00000 31.97366
556 1 1 46.95000 0.00000 33.20341
557 1 1 47.66000 0.00000 34.43317
558 1 1 46.95000 0.00000 35.66293
559 1 1 47.66000 0.00000 36.89268
560 1 1 46.95000 0.00000 38.12244
561 1 1 47.66000 0.00000 39.35219
562 1 1 46.95000 0.00000 40.58195
563 1 1 47.66000 0.00000 41.81171
564 1 1 46.95000 0.00000 43.04146
565 1 1 47.66000 0.00000 44.27122
566 1 1 46.95000 0.00000 45.50097
567 1 1 47.66000 0.00000 46.73073
568 1 1 46.95000 0.00000 47.96049
569 1 1 47.66000 0.00000 49.19024
570 1 1 46.95000 0.00000 50.42000
571 1 1 49.08000 0.00000 4.91902
572 1 1 49.79000 0.00000 6.14878
573 1 1 49.08000 0.00000 7.37854
574 1 1 49.79000 0.00000 8.60829
575 1 1 49.08000 0.00000 9.83805
576 1 1 49.79000 0.00000 11.06780
577 1 1 49.08000 0.00000 12.29756
578 1 1 49.79000 0.00000 13.52732
579 1 1 49.08000 0.00000 14.75707
580 1 1 49.79000 0.00000 15.98683
581 1 1 49.08000 0.00000 17.21659
582 1 1 49.79000 0.00000 18.44634
583 1 1 49.08000 0.00000 19.67610
584 1 1 49.79000 0.00000 20.90585
585 1 1 49.08000 0.00000 22.13561
586 1 1 49.79000 0.00000 23.36537
587 1 1 49.08000 0.00000 24.59512
588 1 1 49.79000 0.00000 25.82488
589 1 1 49.08000 0.00000 27.05463
590 1 1 49.79000 0.00000 28.28439
591 1 1 49.08000 0.00000 29.51415
592 1 1 49.79000 0.00000 30.74390
593 1 1 49.08000 0.00000 31.97366
594 1 1 49.79000 0.00000 33.20341
595 1 1 49.08000 0.00000 34.43317
596 1 1 49.79000 0.00000 35.66293
597 1 1 49.08000 0.00000 36.89268
598 1 1 49.79000 0.00000 38.12244
599 1 1 49.08000 0.00000 39.35219
600 1 1 49.79000 0.00000 40.58195
601 1 1 49.08000 0.00000 41.81171
602 1 1 49.79000 0.00000 43.04146
603 1 1 49.08000 0.00000 44.27122
604 1 1 49.79000 0.00000 45.50097
605 1 1 49.08000 0.00000 46.73073
606 1 1 49.79000 0.00000 47.96049
607 1 1 49.08000 0.00000 49.19024
608 1 1 49.79000 0.00000 50.42000
609 1 1 51.92000 0.00000 4.91902
610 1 1 51.21000 0.00000 6.14878
611 1 1 51.92000 0.00000 7.37854
612 1 1 51.21000 0.00000 8.60829
613 1 1 51.92000 0.00000 9.83805
614 1 1 51.21000 0.00000 11.06780
615 1 1 51.92000 0.00000 12.29756
616 1 1 51.21000 0.00000 13.52732
617 1 1 51.92000 0.00000 14.75707
618 1 1 51.21000 0.00000 15.98683
619 1 1 51.92000 0.00000 17.21659
620 1 1 51.21000 0.00000 18.44634
621 1 1 51.92000 0.00000 19.67610
622 1 1 51.21000 0.00000 20.90585
623 1 1 51.92000 0.00000 22.13561
624 1 1 51.21000 0.00000 23.36537
625 1 1 51.92000 0.00000 24.59512
626 1 1 51.21000 0.00000 25.82488
627 1 1 51.92000 0.00000 27.05463
628 1 1 51.21000 0.00000 28.28439
629 1 1 51.92000 0.00000 29.51415
630 1 1 51.21000 0.00000 30.74390
631 1 1 51.92000 0.00000 31.97366
632 1 1 51.21000 0.00000 33.20341
633 1 1 51.92000 0.00000 34.43317
634 1 1 51.21000 0.00000 35.66293
635 1 1 51.92000 0.00000 36.89268
636 1 1 51.21000 0.00000 38.12244
637 1 1 51.92000 0.00000 39.35219
638 1 1 51.21000 0.00000 40.58195
639 1 1 51.92000 0.00000 41.81171
640 1 1 51.21000 0.00000 43.04146
641 1 1 51.92000 0.00000 44.27122
642 1 1 51.21000 0.00000 45.50097
643 1 1 51.92000 0.00000 46.73073
644 1 1 51.21000 0.00000 47.96049
645 1 1 51.92000 0.00000 49.19024
646 1 1 51.21000 0.00000 50.42000
647 1 1 53.34000 0.00000 4.91902
648 1 1 54.05000 0.00000 6.14878
649 1 1 53.34000 0.00000 7.37854
650 1 1 54.05000 0.00000 8.60829
651 1 1 53.34000 0.00000 9.83805
652 1 1 54.05000 0.00000 11.06780
653 1 1 53.34000 0.00000 12.29756
654 1 1 54.05000 0.00000 13.52732
655 1 1 53.34000 0.00000 14.75707
656 1 1 54.05000 0.00000 15.98683
657 1 1 53.34000 0.00000 17.21659
658 1 1 54.05000 0.00000 18.44634
659 1 1 53.34000 0.00000 19.67610
660 1 1 54.05000 0.00000 20.90585
661 1 1 53.34000 0.00000 22.13561
662 1 1 54.05000 0.00000 23.36537
663 1 1 53.34000 0.00000 24.59512
664 1 1 54.05000 0.00000 25.82488
665 1 1 53.34000 0.00000 27.05463
666 1 1 54.05000 0.00000 28.28439
667 1 1 53.34000 0.00000 29.51415
668 1 1 54.05000 0.00000 30.74390
669 1 1 53.34000 0.00000 31.97366
670 1 1 54.05000 0.00000 33.20341
671 1 1 53.34000 0.00000 34.43317
672 1 1 54.05000 0.00000 35.66293
673 1 1 53.34000 0.00000 36.89268
674 1 1 54.05000 0.00000 38.12244
675 1 1 53.34000 0.00000 39.35219
676 1 1 54.05000 0.00000 40.58195
677 1 1 53.34000 0.00000 41.81171
678 1 1 54.05000 0.00000 43.04146
679 1 1 53.34000 0.00000 44.27122
680 1 1 54.05000 0.00000 45.50097
681 1 1 53.34000 0.00000 46.73073
682 1 1 54.05000 0.00000 47.96049
683 1 1 53.34000 0.00000 49.19024
684 1 1 54.05000 0.00000 50.42000
685 1 1 56.18000 0.00000 4.91902
686 1 1 55.47000 0.00000 6.14878
687 1 1 56.18000 0.00000 7.37854
688 1 1 55.47000 0.00000 8.60829
689 1 1 56.18000 0.00000 9.83805
690 1 1 55.47000 0.00000 11.06780
691 1 1 56.18000 0.00000 12.29756
692 1 1 55.47000 0.00000 13.52732
693 1 1 56.18000 0.00000 14.75707
694 1 1 55.47000 0.00000 15.98683
695 1 1 56.18000 0.00000 17.21659
696 1 1 55.47000 0.00000 18.44634
697 1 1 56.18000 0.00000 19.67610
698 1 1 55.47000 0.00000 20.90585
699 1 1 56.18000 0.00000 22.13561
700 1 1 55.47000 0.00000 23.36537
701 1 1 56.18000 0.00000 24.59512
702 1 1 55.47000 0.00000 25.82488
703 1 1 56.18000 0.00000 27.05463
704 1 1 55.47000 0.00000 28.28439
705 1 1 56.18000 0.00000 29.51415
706 1 1 55.47000 0.00000 30.74390
707 1 1 56.18000 0.00000 31.97366
708 1 1 55.47000 0.00000 33.20341
709 1 1 56.18000 0.00000 34.43317
710 1 1 55.47000 0.00000 35.66293
711 1 1 56.18000 0.00000 36.89268
712 1 1 55.47000 0.00000 38.12244
713 1 1 56.18000 0.00000 39.35219
714 1 1 55.47000 0.00000 40.58195
715 1 1 56.18000 0.00000 41.81171
716 1 1 55.47000 0.00000 43.04146
717 1 1 56.18000 0.00000 44.27122
718 1 1 55.47000 0.00000 45.50097
719 1 1 56.18000 0.00000 46.73073
720 1 1 55.47000 0.00000 47.96049
721 1 1 56.18000 0.00000 49.19024
722 1 1 55.47000 0.00000 50.42000
723 2 1 15.00000 0.00000 0.00000
724 2 1 15.71000 0.00000 1.22976
725 2 1 15.00000 0.00000 2.45951
726 2 1 15.71000 0.00000 3.68927
727 2 1 15.00000 0.00000 4.91902
728 2 1 15.71000 0.00000 6.14878
729 2 1 15.00000 0.00000 7.37854
730 2 1 15.71000 0.00000 8.60829
731 2 1 15.00000 0.00000 9.83805
732 2 1 15.71000 0.00000 11.06780
733 2 1 15.00000 0.00000 12.29756
734 2 1 15.71000 0.00000 13.52732
735 2 1 15.00000 0.00000 14.75707
736 2 1 15.71000 0.00000 15.98683
737 2 1 15.00000 0.00000 17.21659
738 2 1 15.71000 0.00000 18.44634
739 2 1 15.00000 0.00000 19.67610
740 2 1 15.71000 0.00000 20.90585
741 2 1 15.00000 0.00000 22.13561
742 2 1 15.71000 0.00000 23.36537
743 2 1 15.00000 0.00000 24.59512
744 2 1 15.71000 0.00000 25.82488
745 2 1 15.00000 0.00000 27.05463
746 2 1 15.71000 0.00000 28.28439
747 2 1 15.00000 0.00000 29.51415
748 2 1 15.71000 0.00000 30.74390
749 2 1 15.00000 0.00000 31.97366
750 2 1 15.71000 0.00000 33.20341
751 2 1 15.00000 0.00000 34.43317
752 2 1 15.71000 0.00000 35.66293
753 2 1 15.00000 0.00000 36.89268
754 2 1 15.71000 0.00000 38.12244
755 2 1 15.00000 0.00000 39.35219
756 2 1 15.71000 0.00000 40.58195
757 2 1 15.00000 0.00000 41.81171
758 2 1 15.71000 0.00000 43.04146
759 2 1 15.00000 0.00000 44.27122
760 2 1 15.71000 0.00000 45.50097
761 2 1 15.00000 0.00000 46.73073
762 2 1 15.71000 0.00000 47.96049
763 2 1 15.00000 0.00000 49.19024
764 2 1 15.71000 0.00000 50.42000
765 2 1 15.00000 0.00000 51.64976
766 2 1 15.71000 0.00000 52.87951
767 2 1 15.00000 0.00000 54.10927
768 2 1 15.71000 0.00000 55.33902
769 2 1 17.13000 0.00000 1.22976
770 2 1 17.84000 0.00000 2.45951
771 2 1 17.13000 0.00000 3.68927
772 2 1 17.84000 0.00000 51.64976
773 2 1 17.13000 0.00000 52.87951
774 2 1 17.84000 0.00000 54.10927
775 2 1 17.13000 0.00000 55.33902
776 2 1 17.84000 0.00000 0.00000
777 2 1 19.26000 0.00000 0.00000
778 2 1 19.97000 0.00000 1.22976
779 2 1 19.26000 0.00000 2.45951
780 2 1 19.97000 0.00000 3.68927
781 2 1 19.26000 0.00000 51.64976
782 2 1 19.97000 0.00000 52.87951
783 2 1 19.26000 0.00000 54.10927
784 2 1 19.97000 0.00000 55.33902
785 2 1 21.39000 0.00000 1.22976
786 2 1 22.10000 0.00000 2.45951
787 2 1 21.39000 0.00000 3.68927
788 2 1 22.10000 0.00000 51.64976
789 2 1 21.39000 0.00000 52.87951
790 2 1 22.10000 0.00000 54.10927
791 2 1 21.39000 0.00000 55.33902
792 2 1 22.10000 0.00000 0.00000
793 2 1 23.52000 0.00000 0.00000
794 2 1 24.23000 0.00000 1.22976
795 2 1 23.52000 0.00000 2.45951
796 2 1 24.23000 0.00000 3.68927
797 2 1 23.52000 0.00000 51.64976
798 2 1 24.23000 0.00000 52.87951
799 2 1 23.52000 0.00000 54.10927
800 2 1 24.23000 0.00000 55.33902
801 2 1 25.65000 0.00000 1.22976
802 2 1 26.36000 0.00000 2.45951
803 2 1 25.65000 0.00000 3.68927
804 2 1 26.36000 0.00000 51.64976
805 2 1 25.65000 0.00000 52.87951
806 2 1 26.36000 0.00000 54.10927
807 2 1 25.65000 0.00000 55.33902
808 2 1 26.36000 0.00000 0.00000
809 2 1 27.78000 0.00000 0.00000
810 2 1 28.49000 0.00000 1.22976
811 2 1 27.78000 0.00000 2.45951
812 2 1 28.49000 0.00000 3.68927
813 2 1 27.78000 0.00000 51.64976
814 2 1 28.49000 0.00000 52.87951
815 2 1 27.78000 0.00000 54.10927
816 2 1 28.49000 0.00000 55.33902
817 2 1 29.91000 0.00000 1.22976
818 2 1 30.62000 0.00000 2.45951
819 2 1 29.91000 0.00000 3.68927
820 2 1 30.62000 0.00000 51.64976
821 2 1 29.91000 0.00000 52.87951
822 2 1 30.62000 0.00000 54.10927
823 2 1 29.91000 0.00000 55.33902
824 2 1 30.62000 0.00000 0.00000
825 2 1 32.04000 0.00000 0.00000
826 2 1 32.75000 0.00000 1.22976
827 2 1 32.04000 0.00000 2.45951
828 2 1 32.75000 0.00000 3.68927
829 2 1 32.04000 0.00000 51.64976
830 2 1 32.75000 0.00000 52.87951
831 2 1 32.04000 0.00000 54.10927
832 2 1 32.75000 0.00000 55.33902
833 2 1 34.17000 0.00000 1.22976
834 2 1 34.88000 0.00000 2.45951
835 2 1 34.17000 0.00000 3.68927
836 2 1 34.88000 0.00000 51.64976
837 2 1 34.17000 0.00000 52.87951
838 2 1 34.88000 0.00000 54.10927
839 2 1 34.17000 0.00000 55.33902
840 2 1 34.88000 0.00000 0.00000
841 2 1 36.30000 0.00000 0.00000
842 2 1 37.01000 0.00000 1.22976
843 2 1 36.30000 0.00000 2.45951
844 2 1 37.01000 0.00000 3.68927
845 2 1 36.30000 0.00000 51.64976
846 2 1 37.01000 0.00000 52.87951
847 2 1 36.30000 0.00000 54.10927
848 2 1 37.01000 0.00000 55.33902
849 2 1 38.43000 0.00000 1.22976
850 2 1 39.14000 0.00000 2.45951
851 2 1 38.43000 0.00000 3.68927
852 2 1 39.14000 0.00000 51.64976
853 2 1 38.43000 0.00000 52.87951
854 2 1 39.14000 0.00000 54.10927
855 2 1 38.43000 0.00000 55.33902
856 2 1 39.14000 0.00000 0.00000
857 2 1 40.56000 0.00000 0.00000
858 2 1 41.27000 0.00000 1.22976
859 2 1 40.56000 0.00000 2.45951
860 2 1 41.27000 0.00000 3.68927
861 2 1 40.56000 0.00000 51.64976
862 2 1 41.27000 0.00000 52.87951
863 2 1 40.56000 0.00000 54.10927
864 2 1 41.27000 0.00000 55.33902
865 2 1 42.69000 0.00000 1.22976
866 2 1 43.40000 0.00000 2.45951
867 2 1 42.69000 0.00000 3.68927
868 2 1 43.40000 0.00000 51.64976
869 2 1 42.69000 0.00000 52.87951
870 2 1 43.40000 0.00000 54.10927
871 2 1 42.69000 0.00000 55.33902
872 2 1 43.40000 0.00000 0.00000
873 2 1 44.82000 0.00000 0.00000
874 2 1 45.53000 0.00000 1.22976
875 2 1 44.82000 0.00000 2.45951
876 2 1 45.53000 0.00000 3.68927
877 2 1 44.82000 0.00000 51.64976
878 2 1 45.53000 0.00000 52.87951
879 2 1 44.82000 0.00000 54.10927
880 2 1 45.53000 0.00000 55.33902
881 2 1 46.95000 0.00000 1.22976
882 2 1 47.66000 0.00000 2.45951
883 2 1 46.95000 0.00000 3.68927
884 2 1 47.66000 0.00000 51.64976
885 2 1 46.95000 0.00000 52.87951
886 2 1 47.66000 0.00000 54.10927
887 2 1 46.95000 0.00000 55.33902
888 2 1 47.66000 0.00000 0.00000
889 2 1 49.08000 0.00000 0.00000
890 2 1 49.79000 0.00000 1.22976
891 2 1 49.08000 0.00000 2.45951
892 2 1 49.79000 0.00000 3.68927
893 2 1 49.08000 0.00000 51.64976
894 2 1 49.79000 0.00000 52.87951
895 2 1 49.08000 0.00000 54.10927
896 2 1 49.79000 0.00000 55.33902
897 2 1 51.21000 0.00000 1.22976
898 2 1 51.92000 0.00000 2.45951
899 2 1 51.21000 0.00000 3.68927
900 2 1 51.92000 0.00000 51.64976
901 2 1 51.21000 0.00000 52.87951
902 2 1 51.92000 0.00000 54.10927
903 2 1 51.21000 0.00000 55.33902
904 2 1 51.92000 0.00000 0.00000
905 2 1 53.34000 0.00000 0.00000
906 2 1 54.05000 0.00000 1.22976
907 2 1 53.34000 0.00000 2.45951
908 2 1 54.05000 0.00000 3.68927
909 2 1 53.34000 0.00000 51.64976
910 2 1 54.05000 0.00000 52.87951
911 2 1 53.34000 0.00000 54.10927
912 2 1 54.05000 0.00000 55.33902
913 2 1 55.47000 0.00000 1.22976
914 2 1 56.18000 0.00000 2.45951
915 2 1 55.47000 0.00000 3.68927
916 2 1 56.18000 0.00000 51.64976
917 2 1 55.47000 0.00000 52.87951
918 2 1 56.18000 0.00000 54.10927
919 2 1 55.47000 0.00000 55.33902
920 2 1 56.18000 0.00000 0.00000
921 2 1 57.60000 0.00000 0.00000
922 2 1 58.31000 0.00000 1.22976
923 2 1 57.60000 0.00000 2.45951
924 2 1 58.31000 0.00000 3.68927
925 2 1 57.60000 0.00000 4.91902
926 2 1 58.31000 0.00000 6.14878
927 2 1 57.60000 0.00000 7.37854
928 2 1 58.31000 0.00000 8.60829
929 2 1 57.60000 0.00000 9.83805
930 2 1 58.31000 0.00000 11.06780
931 2 1 57.60000 0.00000 12.29756
932 2 1 58.31000 0.00000 13.52732
933 2 1 57.60000 0.00000 14.75707
934 2 1 58.31000 0.00000 15.98683
935 2 1 57.60000 0.00000 17.21659
936 2 1 58.31000 0.00000 18.44634
937 2 1 57.60000 0.00000 19.67610
938 2 1 58.31000 0.00000 20.90585
939 2 1 57.60000 0.00000 22.13561
940 2 1 58.31000 0.00000 23.36537
941 2 1 57.60000 0.00000 24.59512
942 2 1 58.31000 0.00000 25.82488
943 2 1 57.60000 0.00000 27.05463
944 2 1 58.31000 0.00000 28.28439
945 2 1 57.60000 0.00000 29.51415
946 2 1 58.31000 0.00000 30.74390
947 2 1 57.60000 0.00000 31.97366
948 2 1 58.31000 0.00000 33.20341
949 2 1 57.60000 0.00000 34.43317
950 2 1 58.31000 0.00000 35.66293
951 2 1 57.60000 0.00000 36.89268
952 2 1 58.31000 0.00000 38.12244
953 2 1 57.60000 0.00000 39.35219
954 2 1 58.31000 0.00000 40.58195
955 2 1 57.60000 0.00000 41.81171
956 2 1 58.31000 0.00000 43.04146
957 2 1 57.60000 0.00000 44.27122
958 2 1 58.31000 0.00000 45.50097
959 2 1 57.60000 0.00000 46.73073
960 2 1 58.31000 0.00000 47.96049
961 2 1 57.60000 0.00000 49.19024
962 2 1 58.31000 0.00000 50.42000
963 2 1 57.60000 0.00000 51.64976
964 2 1 58.31000 0.00000 52.87951
965 2 1 57.60000 0.00000 54.10927
966 2 1 58.31000 0.00000 55.33902
