# graphene sheet, generated by graphene_defect_ml

966 atoms
1 atom types

1.33628 71.33628 xlo xhi
-12.50000 12.50000 ylo yhi
-7.73774 62.26226 zlo zhi

Masses

1 12.0107

Atoms # molecular

1 1 1 17.79820 0.00000 4.84662
2 1 1 17.09865 0.00000 6.05828
3 1 1 17.79820 0.00000 7.26994
4 1 1 17.09865 0.00000 8.48159
5 1 1 17.79820 0.00000 9.69325
6 1 1 17.09865 0.00000 10.90491
7 1 1 17.79820 0.00000 12.11656
8 1 1 17.09865 0.00000 13.32822
9 1 1 17.79820 0.00000 14.53987
10 1 1 17.09865 0.00000 15.75153
11 1 1 17.79820 0.00000 16.96319
12 1 1 17.09865 0.00000 18.17484
13 1 1 17.79820 0.00000 19.38650
14 1 1 17.09865 0.00000 20.59815
15 1 1 17.79820 0.00000 21.80981
16 1 1 17.09865 0.00000 23.02147
17 1 1 17.79820 0.00000 24.23312
18 1 1 17.09865 0.00000 25.44478
19 1 1 17.79820 0.00000 26.65644
20 1 1 17.09865 0.00000 27.86809
21 1 1 17.79820 0.00000 29.07975
22 1 1 17.09865 0.00000 30.29140
23 1 1 17.79820 0.00000 31.50306
24 1 1 17.09865 0.00000 32.71472
25 1 1 17.79820 0.00000 33.92637
26 1 1 17.09865 0.00000 35.13803
27 1 1 17.79820 0.00000 36.34968
28 1 1 17.09865 0.00000 37.56134
29 1 1 17.79820 0.00000 38.77300
30 1 1 17.09865 0.00000 39.98465
31 1 1 17.79820 0.00000 41.19631
32 1 1 17.09865 0.00000 42.40796
33 1 1 17.79820 0.00000 43.61962
34 1 1 17.09865 0.00000 44.83128
35 1 1 17.79820 0.00000 46.04293
36 1 1 17.09865 0.00000 47.25459
37 1 1 17.79820 0.00000 48.46625
38 1 1 17.09865 0.00000 49.67790
39 1 1 19.19730 0.00000 4.84662
40 1 1 19.89685 0.00000 6.05828
41 1 1 19.19730 0.00000 7.26994
42 1 1 19.89685 0.00000 8.48159
43 1 1 19.19730 0.00000 9.69325
44 1 1 19.89685 0.00000 10.90491
45 1 1 19.19730 0.00000 12.11656
46 1 1 19.89685 0.00000 13.32822
47 1 1 19.19730 0.00000 14.53987
48 1 1 19.89685 0.00000 15.75153
49 1 1 19.19730 0.00000 16.96319
50 1 1 19.89685 0.00000 18.17484
51 1 1 19.19730 0.00000 19.38650
52 1 1 19.89685 0.00000 20.59815
53 1 1 19.19730 0.00000 21.80981
54 1 1 19.89685 0.00000 23.02147
55 1 1 19.19730 0.00000 24.23312
56 1 1 19.89685 0.00000 25.44478
57 1 1 19.19730 0.00000 26.65644
58 1 1 19.89685 0.00000 27.86809
59 1 1 19.19730 0.00000 29.07975
60 1 1 19.89685 0.00000 30.29140
61 1 1 19.19730 0.00000 31.50306
62 1 1 19.89685 0.00000 32.71472
63 1 1 19.19730 0.00000 33.92637
64 1 1 19.89685 0.00000 35.13803
65 1 1 19.19730 0.00000 36.34968
66 1 1 19.89685 0.00000 37.56134
67 1 1 19.19730 0.00000 38.77300
68 1 1 19.89685 0.00000 39.98465
69 1 1 19.19730 0.00000 41.19631
70 1 1 19.89685 0.00000 42.40796
71 1 1 19.19730 0.00000 43.61962
72 1 1 19.89685 0.00000 44.83128
73 1 1 19.19730 0.00000 46.04293
74 1 1 19.89685 0.00000 47.25459
75 1 1 19.19730 0.00000 48.46625
76 1 1 19.89685 0.00000 49.67790
77 1 1 21.99550 0.00000 4.84662
78 1 1 21.29595 0.00000 6.05828
79 1 1 21.99550 0.00000 7.26994
80 1 1 21.29595 0.00000 8.48159
81 1 1 21.99550 0.00000 9.69325
82 1 1 21.29595 0.00000 10.90491
83 1 1 21.99550 0.00000 12.11656
84 1 1 21.29595 0.00000 13.32822
85 1 1 21.99550 0.00000 14.53987
86 1 1 21.29595 0.00000 15.75153
87 1 1 21.99550 0.00000 16.96319
88 1 1 21.29595 0.00000 18.17484
89 1 1 21.99550 0.00000 19.38650
90 1 1 21.29595 0.00000 20.59815
91 1 1 21.99550 0.00000 21.80981
92 1 1 21.29595 0.00000 23.02147
93 1 1 21.99550 0.00000 24.23312
94 1 1 21.29595 0.00000 25.44478
95 1 1 21.99550 0.00000 26.65644
96 1 1 21.29595 0.00000 27.86809
97 1 1 21.99550 0.00000 29.07975
98 1 1 21.29595 0.00000 30.29140
99 1 1 21.99550 0.00000 31.50306
100 1 1 21.29595 0.00000 32.71472
101 1 1 21.99550 0.00000 33.92637
102 1 1 21.29595 0.00000 35.13803
103 1 1 21.99550 0.00000 36.34968
104 1 1 21.29595 0.00000 37.56134
105 1 1 21.99550 0.00000 38.77300
106 1 1 21.29595 0.00000 39.98465
107 1 1 21.99550 0.00000 41.19631
108 1 1 21.29595 0.00000 42.40796
109 1 1 21.99550 0.00000 43.61962
110 1 1 21.29595 0.00000 44.83128
111 1 1 21.99550 0.00000 46.04293
112 1 1 21.29595 0.00000 47.25459
113 1 1 21.99550 0.00000 48.46625
114 1 1 21.29595 0.00000 49.67790
115 1 1 23.39460 0.00000 4.84662
116 1 1 24.09415 0.00000 6.05828
117 1 1 23.39460 0.00000 7.26994
118 1 1 24.09415 0.00000 8.48159
119 1 1 23.39460 0.00000 9.69325
120 1 1 24.09415 0.00000 10.90491
121 1 1 23.39460 0.00000 12.11656
122 1 1 24.09415 0.00000 13.32822
123 1 1 23.39460 0.00000 14.53987
124 1 1 24.09415 0.00000 15.75153
125 1 1 23.39460 0.00000 16.96319
126 1 1 24.09415 0.00000 18.17484
127 1 1 23.39460 0.00000 19.38650
128 1 1 24.09415 0.00000 20.59815
129 1 1 23.39460 0.00000 21.80981
130 1 1 24.09415 0.00000 23.02147
131 1 1 23.39460 0.00000 24.23312
132 1 1 24.09415 0.00000 25.44478
133 1 1 23.39460 0.00000 26.65644
134 1 1 24.09415 0.00000 27.86809
135 1 1 23.39460 0.00000 29.07975
136 1 1 24.09415 0.00000 30.29140
137 1 1 23.39460 0.00000 31.50306
138 1 1 24.09415 0.00000 32.71472
139 1 1 23.39460 0.00000 33.92637
140 1 1 24.09415 0.00000 35.13803
141 1 1 23.39460 0.00000 36.34968
142 1 1 24.09415 0.00000 37.56134
143 1 1 23.39460 0.00000 38.77300
144 1 1 24.09415 0.00000 39.98465
145 1 1 23.39460 0.00000 41.19631
146 1 1 24.09415 0.00000 42.40796
147 1 1 23.39460 0.00000 43.61962
148 1 1 24.09415 0.00000 44.83128
149 1 1 23.39460 0.00000 46.04293
150 1 1 24.09415 0.00000 47.25459
151 1 1 23.39460 0.00000 48.46625
152 1 1 24.09415 0.00000 49.67790
153 1 1 26.19280 0.00000 4.84662
154 1 1 25.49325 0.00000 6.05828
155 1 1 26.19280 0.00000 7.26994
156 1 1 25.49325 0.00000 8.48159
157 1 1 26.19280 0.00000 9.69325
158 1 1 25.49325 0.00000 10.90491
159 1 1 26.19280 0.00000 12.11656
160 1 1 25.49325 0.00000 13.32822
161 1 1 26.19280 0.00000 14.53987
162 1 1 25.49325 0.00000 15.75153
163 1 1 26.19280 0.00000 16.96319
164 1 1 25.49325 0.00000 18.17484
165 1 1 26.19280 0.00000 19.38650
166 1 1 25.49325 0.00000 20.59815
167 1 1 26.19280 0.00000 21.80981
168 1 1 25.49325 0.00000 23.02147
169 1 1 26.19280 0.00000 24.23312
170 1 1 25.49325 0.00000 25.44478
171 1 1 26.19280 0.00000 26.65644
172 1 1 25.49325 0.00000 27.86809
173 1 1 26.19280 0.00000 29.07975
174 1 1 25.49325 0.00000 30.29140
175 1 1 26.19280 0.00000 31.50306
176 1 1 25.49325 0.00000 32.71472
177 1 1 26.19280 0.00000 33.92637
178 1 1 25.49325 0.00000 35.13803
179 1 1 26.19280 0.00000 36.34968
180 1 1 25.49325 0.00000 37.56134
181 1 1 26.19280 0.00000 38.77300
182 1 1 25.49325 0.00000 39.98465
183 1 1 26.19280 0.00000 41.19631
184 1 1 25.49325 0.00000 42.40796
185 1 1 26.19280 0.00000 43.61962
186 1 1 25.49325 0.00000 44.83128
187 1 1 26.19280 0.00000 46.04293
188 1 1 25.49325 0.00000 47.25459
189 1 1 26.19280 0.00000 48.46625
190 1 1 25.49325 0.00000 49.67790
191 1 1 27.59190 0.00000 4.84662
192 1 1 28.29145 0.00000 6.05828
193 1 1 27.59190 0.00000 7.26994
194 1 1 28.29145 0.00000 8.48159
195 1 1 27.59190 0.00000 9.69325
196 1 1 28.29145 0.00000 10.90491
197 1 1 27.59190 0.00000 12.11656
198 1 1 28.29145 0.00000 13.32822
199 1 1 27.59190 0.00000 14.53987
200 1 1 28.29145 0.00000 15.75153
201 1 1 27.59190 0.00000 16.96319
202 1 1 28.29145 0.00000 18.17484
203 1 1 27.59190 0.00000 19.38650
204 1 1 28.29145 0.00000 20.59815
205 1 1 27.59190 0.00000 21.80981
206 1 1 28.29145 0.00000 23.02147
207 1 1 27.59190 0.00000 24.23312
208 1 1 28.29145 0.00000 25.44478
209 1 1 27.59190 0.00000 26.65644
210 1 1 28.29145 0.00000 27.86809
211 1 1 27.59190 0.00000 29.07975
212 1 1 28.29145 0.00000 30.29140
213 1 1 27.59190 0.00000 31.50306
214 1 1 28.29145 0.00000 32.71472
215 1 1 27.59190 0.00000 33.92637
216 1 1 28.29145 0.00000 35.13803
217 1 1 27.59190 0.00000 36.34968
218 1 1 28.29145 0.00000 37.56134
219 1 1 27.59190 0.00000 38.77300
220 1 1 28.29145 0.00000 39.98465
221 1 1 27.59190 0.00000 41.19631
222 1 1 28.29145 0.00000 42.40796
223 1 1 27.59190 0.00000 43.61962
224 1 1 28.29145 0.00000 44.83128
225 1 1 27.59190 0.00000 46.04293
226 1 1 28.29145 0.00000 47.25459
227 1 1 27.59190 0.00000 48.46625
228 1 1 28.29145 0.00000 49.67790
229 1 1 30.39010 0.00000 4.84662
230 1 1 29.69055 0.00000 6.05828
231 1 1 30.39010 0.00000 7.26994
232 1 1 29.69055 0.00000 8.48159
233 1 1 30.39010 0.00000 9.69325
234 1 1 29.69055 0.00000 10.90491
235 1 1 30.39010 0.00000 12.11656
236 1 1 29.69055 0.00000 13.32822
237 1 1 30.39010 0.00000 14.53987
238 1 1 29.69055 0.00000 15.75153
239 1 1 30.39010 0.00000 16.96319
240 1 1 29.69055 0.00000 18.17484
241 1 1 30.39010 0.00000 19.38650
242 1 1 29.69055 0.00000 20.59815
243 1 1 30.39010 0.00000 21.80981
244 1 1 29.69055 0.00000 23.02147
245 1 1 30.39010 0.00000 24.23312
246 1 1 29.69055 0.00000 25.44478
247 1 1 30.39010 0.00000 26.65644
248 1 1 29.69055 0.00000 27.86809
249 1 1 30.39010 0.00000 29.07975
250 1 1 29.69055 0.00000 30.29140
251 1 1 30.39010 0.00000 31.50306
252 1 1 29.69055 0.00000 32.71472
253 1 1 30.39010 0.00000 33.92637
254 1 1 29.69055 0.00000 35.13803
255 1 1 30.39010 0.00000 36.34968
256 1 1 29.69055 0.00000 37.56134
257 1 1 30.39010 0.00000 38.77300
258 1 1 29.69055 0.00000 39.98465
259 1 1 30.39010 0.00000 41.19631
260 1 1 29.69055 0.00000 42.40796
261 1 1 30.39010 0.00000 43.61962
262 1 1 29.69055 0.00000 44.83128
263 1 1 30.39010 0.00000 46.04293
264 1 1 29.69055 0.00000 47.25459
265 1 1 30.39010 0.00000 48.46625
266 1 1 29.69055 0.00000 49.67790
267 1 1 31.78920 0.00000 4.84662
268 1 1 32.48875 0.00000 6.05828
269 1 1 31.78920 0.00000 7.26994
270 1 1 32.48875 0.00000 8.48159
271 1 1 31.78920 0.00000 9.69325
272 1 1 32.48875 0.00000 10.90491
273 1 1 31.78920 0.00000 12.11656
274 1 1 32.48875 0.00000 13.32822
275 1 1 31.78920 0.00000 14.53987
276 1 1 32.48875 0.00000 15.75153
277 1 1 31.78920 0.00000 16.96319
278 1 1 32.48875 0.00000 18.17484
279 1 1 31.78920 0.00000 19.38650
280 1 1 32.48875 0.00000 20.59815
281 1 1 31.78920 0.00000 21.80981
282 1 1 32.48875 0.00000 23.02147
283 1 1 31.78920 0.00000 24.23312
284 1 1 32.48875 0.00000 25.44478
285 1 1 31.78920 0.00000 26.65644
286 1 1 32.48875 0.00000 27.86809
287 1 1 31.78920 0.00000 29.07975
288 1 1 32.48875 0.00000 30.29140
289 1 1 31.78920 0.00000 31.50306
290 1 1 32.48875 0.00000 32.71472
291 1 1 31.78920 0.00000 33.92637
292 1 1 32.48875 0.00000 35.13803
293 1 1 31.78920 0.00000 36.34968
294 1 1 32.48875 0.00000 37.56134
295 1 1 31.78920 0.00000 38.77300
296 1 1 32.48875 0.00000 39.98465
297 1 1 31.78920 0.00000 41.19631
298 1 1 32.48875 0.00000 42.40796
299 1 1 31.78920 0.00000 43.61962
300 1 1 32.48875 0.00000 44.83128
301 1 1 31.78920 0.00000 46.04293
302 1 1 32.48875 0.00000 47.25459
303 1 1 31.78920 0.00000 48.46625
304 1 1 32.48875 0.00000 49.67790
305 1 1 34.58740 0.00000 4.84662
306 1 1 33.88785 0.00000 6.05828
307 1 1 34.58740 0.00000 7.26994
308 1 1 33.88785 0.00000 8.48159
309 1 1 34.58740 0.00000 9.69325
310 1 1 33.88785 0.00000 10.90491
311 1 1 34.58740 0.00000 12.11656
312 1 1 33.88785 0.00000 13.32822
313 1 1 34.58740 0.00000 14.53987
314 1 1 33.88785 0.00000 15.75153
315 1 1 34.58740 0.00000 16.96319
316 1 1 33.88785 0.00000 18.17484
317 1 1 34.58740 0.00000 19.38650
318 1 1 33.88785 0.00000 20.59815
319 1 1 34.58740 0.00000 21.80981
320 1 1 33.88785 0.00000 23.02147
321 1 1 34.58740 0.00000 24.23312
322 1 1 33.88785 0.00000 25.44478
323 1 1 34.58740 0.00000 26.65644
324 1 1 33.88785 0.00000 27.86809
325 1 1 34.58740 0.00000 29.07975
326 1 1 33.88785 0.00000 30.29140
327 1 1 34.58740 0.00000 31.50306
328 1 1 33.88785 0.00000 32.71472
329 1 1 34.58740 0.00000 33.92637
330 1 1 33.88785 0.00000 35.13803
331 1 1 34.58740 0.00000 36.34968
332 1 1 33.88785 0.00000 37.56134
333 1 1 34.58740 0.00000 38.77300
334 1 1 33.88785 0.00000 39.98465
335 1 1 34.58740 0.00000 41.19631
336 1 1 33.88785 0.00000 42.40796
337 1 1 34.58740 0.00000 43.61962
338 1 1 33.88785 0.00000 44.83128
339 1 1 34.58740 0.00000 46.04293
340 1 1 33.88785 0.00000 47.25459
341 1 1 34.58740 0.00000 48.46625
342 1 1 33.88785 0.00000 49.67790
343 1 1 35.98650 0.00000 4.84662
344 1 1 36.68605 0.00000 6.05828
345 1 1 35.98650 0.00000 7.26994
346 1 1 36.68605 0.00000 8.48159
347 1 1 35.98650 0.00000 9.69325
348 1 1 36.68605 0.00000 10.90491
349 1 1 35.98650 0.00000 12.11656
350 1 1 36.68605 0.00000 13.32822
351 1 1 35.98650 0.00000 14.53987
352 1 1 36.68605 0.00000 15.75153
353 1 1 35.98650 0.00000 16.96319
354 1 1 36.68605 0.00000 18.17484
355 1 1 35.98650 0.00000 19.38650
356 1 1 36.68605 0.00000 20.59815
357 1 1 35.98650 0.00000 21.80981
358 1 1 36.68605 0.00000 23.02147
359 1 1 35.98650 0.00000 24.23312
360 1 1 36.68605 0.00000 25.44478
361 1 1 35.98650 0.00000 26.65644
362 1 1 36.68605 0.00000 27.86809
363 1 1 35.98650 0.00000 29.07975
364 1 1 36.68605 0.00000 30.29140
365 1 1 35.98650 0.00000 31.50306
366 1 1 36.68605 0.00000 32.71472
367 1 1 35.98650 0.00000 33.92637
368 1 1 36.68605 0.00000 35.13803
369 1 1 35.98650 0.00000 36.34968
370 1 1 36.68605 0.00000 37.56134
371 1 1 35.98650 0.00000 38.77300
372 1 1 36.68605 0.00000 39.98465
373 1 1 35.98650 0.00000 41.19631
374 1 1 36.68605 0.00000 42.40796
375 1 1 35.98650 0.00000 43.61962
376 1 1 36.68605 0.00000 44.83128
377 1 1 35.98650 0.00000 46.04293
378 1 1 36.68605 0.00000 47.25459
379 1 1 35.98650 0.00000 48.46625
380 1 1 36.68605 0.00000 49.67790
381 1 1 38.78470 0.00000 4.84662
382 1 1 38.08515 0.00000 6.05828
383 1 1 38.78470 0.00000 7.26994
384 1 1 38.08515 0.00000 8.48159
385 1 1 38.78470 0.00000 9.69325
386 1 1 38.08515 0.00000 10.90491
387 1 1 38.78470 0.00000 12.11656
388 1 1 38.08515 0.00000 13.32822
389 1 1 38.78470 0.00000 14.53987
390 1 1 38.08515 0.00000 15.75153
391 1 1 38.78470 0.00000 16.96319
392 1 1 38.08515 0.00000 18.17484
393 1 1 38.78470 0.00000 19.38650
394 1 1 38.08515 0.00000 20.59815
395 1 1 38.78470 0.00000 21.80981
396 1 1 38.08515 0.00000 23.02147
397 1 1 38.78470 0.00000 24.23312
398 1 1 38.08515 0.00000 25.44478
399 1 1 38.78470 0.00000 26.65644
400 1 1 38.08515 0.00000 27.86809
401 1 1 38.78470 0.00000 29.07975
402 1 1 38.08515 0.00000 30.29140
403 1 1 38.78470 0.00000 31.50306
404 1 1 38.08515 0.00000 32.71472
405 1 1 38.78470 0.00000 33.92637
406 1 1 38.08515 0.00000 35.13803
407 1 1 38.78470 0.00000 36.34968
408 1 1 38.08515 0.00000 37.56134
409 1 1 38.78470 0.00000 38.77300
410 1 1 38.08515 0.00000 39.98465
411 1 1 38.78470 0.00000 41.19631
412 1 1 38.08515 0.00000 42.40796
413 1 1 38.78470 0.00000 43.61962
414 1 1 38.08515 0.00000 44.83128
415 1 1 38.78470 0.00000 46.04293
416 1 1 38.08515 0.00000 47.25459
417 1 1 38.78470 0.00000 48.46625
418 1 1 38.08515 0.00000 49.67790
419 1 1 40.18380 0.00000 4.84662
420 1 1 40.88335 0.00000 6.05828
421 1 1 40.18380 0.00000 7.26994
422 1 1 40.88335 0.00000 8.48159
423 1 1 40.18380 0.00000 9.69325
424 1 1 40.88335 0.00000 10.90491
425 1 1 40.18380 0.00000 12.11656
426 1 1 40.88335 0.00000 13.32822
427 1 1 40.18380 0.00000 14.53987
428 1 1 40.88335 0.00000 15.75153
429 1 1 40.18380 0.00000 16.96319
430 1 1 40.88335 0.00000 18.17484
431 1 1 40.18380 0.00000 19.38650
432 1 1 40.88335 0.00000 20.59815
433 1 1 40.18380 0.00000 21.80981
434 1 1 40.88335 0.00000 23.02147
435 1 1 40.18380 0.00000 24.23312
436 1 1 40.88335 0.00000 25.44478
437 1 1 40.18380 0.00000 26.65644
438 1 1 40.88335 0.00000 27.86809
439 1 1 40.18380 0.00000 29.07975
440 1 1 40.88335 0.00000 30.29140
441 1 1 40.18380 0.00000 31.50306
442 1 1 40.88335 0.00000 32.71472
443 1 1 40.18380 0.00000 33.92637
444 1 1 40.88335 0.00000 35.13803
445 1 1 40.18380 0.00000 36.34968
446 1 1 40.88335 0.00000 37.56134
447 1 1 40.18380 0.00000 38.77300
448 1 1 40.88335 0.00000 39.98465
449 1 1 40.18380 0.00000 41.19631
450 1 1 40.88335 0.00000 42.40796
451 1 1 40.18380 0.00000 43.61962
452 1 1 40.88335 0.00000 44.83128
453 1 1 40.18380 0.00000 46.04293
454 1 1 40.88335 0.00000 47.25459
455 1 1 40.18380 0.00000 48.46625
456 1 1 40.88335 0.00000 49.67790
457 1 1 42.98200 0.00000 4.84662
458 1 1 42.28245 0.00000 6.05828
459 1 1 42.98200 0.00000 7.26994
460 1 1 42.28245 0.00000 8.48159
461 1 1 42.98200 0.00000 9.69325
462 1 1 42.28245 0.00000 10.90491
463 1 1 42.98200 0.00000 12.11656
464 1 1 42.28245 0.00000 13.32822
465 1 1 42.98200 0.00000 14.53987
466 1 1 42.28245 0.00000 15.75153
467 1 1 42.98200 0.00000 16.96319
468 1 1 42.28245 0.00000 18.17484
469 1 1 42.98200 0.00000 19.38650
470 1 1 42.28245 0.00000 20.59815
471 1 1 42.98200 0.00000 21.80981
472 1 1 42.28245 0.00000 23.02147
473 1 1 42.98200 0.00000 24.23312
474 1 1 42.28245 0.00000 25.44478
475 1 1 42.98200 0.00000 26.65644
476 1 1 42.28245 0.00000 27.86809
477 1 1 42.98200 0.00000 29.07975
478 1 1 42.28245 0.00000 30.29140
479 1 1 42.98200 0.00000 31.50306
480 1 1 42.28245 0.00000 32.71472
481 1 1 42.98200 0.00000 33.92637
482 1 1 42.28245 0.00000 35.13803
483 1 1 42.98200 0.00000 36.34968
484 1 1 42.28245 0.00000 37.56134
485 1 1 42.98200 0.00000 38.77300
486 1 1 42.28245 0.00000 39.98465
487 1 1 42.98200 0.00000 41.19631
488 1 1 42.28245 0.00000 42.40796
489 1 1 42.98200 0.00000 43.61962
490 1 1 42.28245 0.00000 44.83128
491 1 1 42.98200 0.00000 46.04293
492 1 1 42.28245 0.00000 47.25459
493 1 1 42.98200 0.00000 48.46625
494 1 1 42.28245 0.00000 49.67790
495 1 1 44.38110 0.00000 4.84662
496 1 1 45.08065 0.00000 6.05828
497 1 1 44.38110 0.00000 7.26994
498 1 1 45.08065 0.00000 8.48159
499 1 1 44.38110 0.00000 9.69325
500 1 1 45.08065 0.00000 10.90491
501 1 1 44.38110 0.00000 12.11656
502 1 1 45.08065 0.00000 13.32822
503 1 1 44.38110 0.00000 14.53987
504 1 1 45.08065 0.00000 15.75153
505 1 1 44.38110 0.00000 16.96319
506 1 1 45.08065 0.00000 18.17484
507 1 1 44.38110 0.00000 19.38650
508 1 1 45.08065 0.00000 20.59815
509 1 1 44.38110 0.00000 21.80981
510 1 1 45.08065 0.00000 23.02147
511 1 1 44.38110 0.00000 24.23312
512 1 1 45.08065 0.00000 25.44478
513 1 1 44.38110 0.00000 26.65644
514 1 1 45.08065 0.00000 27.86809
515 1 1 44.38110 0.00000 29.07975
516 1 1 45.08065 0.00000 30.29140
517 1 1 44.38110 0.00000 31.50306
518 1 1 45.08065 0.00000 32.71472
519 1 1 44.38110 0.00000 33.92637
520 1 1 45.08065 0.00000 35.13803
521 1 1 44.38110 0.00000 36.34968
522 1 1 45.08065 0.00000 37.56134
523 1 1 44.38110 0.00000 38.77300
524 1 1 45.08065 0.00000 39.98465
525 1 1 44.38110 0.00000 41.19631
526 1 1 45.08065 0.00000 42.40796
527 1 1 44.38110 0.00000 43.61962
528 1 1 45.08065 0.00000 44.83128
529 1 1 44.38110 0.00000 46.04293
530 1 1 45.08065 0.00000 47.25459
531 1 1 44.38110 0.00000 48.46625
532 1 1 45.08065 0.00000 49.67790
533 1 1 47.17930 0.00000 4.84662
534 1 1 46.47975 0.00000 6.05828
535 1 1 47.17930 0.00000 7.26994
536 1 1 46.47975 0.00000 8.48159
537 1 1 47.17930 0.00000 9.69325
538 1 1 46.47975 0.00000 10.90491
539 1 1 47.17930 0.00000 12.11656
540 1 1 46.47975 0.00000 13.32822
541 1 1 47.17930 0.00000 14.53987
542 1 1 46.47975 0.00000 15.75153
543 1 1 47.17930 0.00000 16.96319
544 1 1 46.47975 0.00000 18.17484
545 1 1 47.17930 0.00000 19.38650
546 1 1 46.47975 0.00000 20.59815
547 1 1 47.17930 0.00000 21.80981
548 1 1 46.47975 0.00000 23.02147
549 1 1 47.17930 0.00000 24.23312
550 1 1 46.47975 0.00000 25.44478
551 1 1 47.17930 0.00000 26.65644
552 1 1 46.47975 0.00000 27.86809
553 1 1 47.17930 0.00000 29.07975
554 1 1 46.47975 0.00000 30.29140
555 1 1 47.17930 0.00000 31.50306
556 1 1 46.47975 0.00000 32.71472
557 1 1 47.17930 0.00000 33.92637
558 1 1 46.47975 0.00000 35.13803
559 1 1 47.17930 0.00000 36.34968
560 1 1 46.47975 0.00000 37.56134
561 1 1 47.17930 0.00000 38.77300
562 1 1 46.47975 0.00000 39.98465
563 1 1 47.17930 0.00000 41.19631
564 1 1 46.47975 0.00000 42.40796
565 1 1 47.17930 0.00000 43.61962
566 1 1 46.47975 0.00000 44.83128
567 1 1 47.17930 0.00000 46.04293
568 1 1 46.47975 0.00000 47.25459
569 1 1 47.17930 0.00000 48.46625
570 1 1 46.47975 0.00000 49.67790
571 1 1 48.57840 0.00000 4.84662
572 1 1 49.27795 0.00000 6.05828
573 1 1 48.57840 0.00000 7.26994
574 1 1 49.27795 0.00000 8.48159
575 1 1 48.57840 0.00000 9.69325
576 1 1 49.27795 0.00000 10.90491
577 1 1 48.57840 0.00000 12.11656
578 1 1 49.27795 0.00000 13.32822
579 1 1 48.57840 0.00000 14.53987
580 1 1 49.27795 0.00000 15.75153
581 1 1 48.57840 0.00000 16.96319
582 1 1 49.27795 0.00000 18.17484
583 1 1 48.57840 0.00000 19.38650
584 1 1 49.27795 0.00000 20.59815
585 1 1 48.57840 0.00000 21.80981
586 1 1 49.27795 0.00000 23.02147
587 1 1 48.57840 0.00000 24.23312
588 1 1 49.27795 0.00000 25.44478
589 1 1 48.57840 0.00000 26.65644
590 1 1 49.27795 0.00000 27.86809
591 1 1 48.57840 0.00000 29.07975
592 1 1 49.27795 0.00000 30.29140
593 1 1 48.57840 0.00000 31.50306
594 1 1 49.27795 0.00000 32.71472
595 1 1 48.57840 0.00000 33.92637
596 1 1 49.27795 0.00000 35.13803
597 1 1 48.57840 0.00000 36.34968
598 1 1 49.27795 0.00000 37.56134
599 1 1 48.57840 0.00000 38.77300
600 1 1 49.27795 0.00000 39.98465
601 1 1 48.57840 0.00000 41.19631
602 1 1 49.27795 0.00000 42.40796
603 1 1 48.57840 0.00000 43.61962
604 1 1 49.27795 0.00000 44.83128
605 1 1 48.57840 0.00000 46.04293
606 1 1 49.27795 0.00000 47.25459
607 1 1 48.57840 0.00000 48.46625
608 1 1 49.27795 0.00000 49.67790
609 1 1 51.37660 0.00000 4.84662
610 1 1 50.67705 0.00000 6.05828
611 1 1 51.37660 0.00000 7.26994
612 1 1 50.67705 0.00000 8.48159
613 1 1 51.37660 0.00000 9.69325
614 1 1 50.67705 0.00000 10.90491
615 1 1 51.37660 0.00000 12.11656
616 1 1 50.67705 0.00000 13.32822
617 1 1 51.37660 0.00000 14.53987
618 1 1 50.67705 0.00000 15.75153
619 1 1 51.37660 0.00000 16.96319
620 1 1 50.67705 0.00000 18.17484
621 1 1 51.37660 0.00000 19.38650
622 1 1 50.67705 0.00000 20.59815
623 1 1 51.37660 0.00000 21.80981
624 1 1 50.67705 0.00000 23.02147
625 1 1 51.37660 0.00000 24.23312
626 1 1 50.67705 0.00000 25.44478
627 1 1 51.37660 0.00000 26.65644
628 1 1 50.67705 0.00000 27.86809
629 1 1 51.37660 0.00000 29.07975
630 1 1 50.67705 0.00000 30.29140
631 1 1 51.37660 0.00000 31.50306
632 1 1 50.67705 0.00000 32.71472
633 1 1 51.37660 0.00000 33.92637
634 1 1 50.67705 0.00000 35.13803
635 1 1 51.37660 0.00000 36.34968
636 1 1 50.67705 0.00000 37.56134
637 1 1 51.37660 0.00000 38.77300
638 1 1 50.67705 0.00000 39.98465
639 1 1 51.37660 0.00000 41.19631
640 1 1 50.67705 0.00000 42.40796
641 1 1 51.37660 0.00000 43.61962
642 1 1 50.67705 0.00000 44.83128
643 1 1 51.37660 0.00000 46.04293
644 1 1 50.67705 0.00000 47.25459
645 1 1 51.37660 0.00000 48.46625
646 1 1 50.67705 0.00000 49.67790
647 1 1 52.77570 0.00000 4.84662
648 1 1 53.47525 0.00000 6.05828
649 1 1 52.77570 0.00000 7.26994
650 1 1 53.47525 0.00000 8.48159
651 1 1 52.77570 0.00000 9.69325
652 1 1 53.47525 0.00000 10.90491
653 1 1 52.77570 0.00000 12.11656
654 1 1 53.47525 0.00000 13.32822
655 1 1 52.77570 0.00000 14.53987
656 1 1 53.47525 0.00000 15.75153
657 1 1 52.77570 0.00000 16.96319
658 1 1 53.47525 0.00000 18.17484
659 1 1 52.77570 0.00000 19.38650
660 1 1 53.47525 0.00000 20.59815
661 1 1 52.77570 0.00000 21.80981
662 1 1 53.47525 0.00000 23.02147
663 1 1 52.77570 0.00000 24.23312
664 1 1 53.47525 0.00000 25.44478
665 1 1 52.77570 0.00000 26.65644
666 1 1 53.47525 0.00000 27.86809
667 1 1 52.77570 0.00000 29.07975
668 1 1 53.47525 0.00000 30.29140
669 1 1 52.77570 0.00000 31.50306
670 1 1 53.47525 0.00000 32.71472
671 1 1 52.77570 0.00000 33.92637
672 1 1 53.47525 0.00000 35.13803
673 1 1 52.77570 0.00000 36.34968
674 1 1 53.47525 0.00000 37.56134
675 1 1 52.77570 0.00000 38.77300
676 1 1 53.47525 0.00000 39.98465
677 1 1 52.77570 0.00000 41.19631
678 1 1 53.47525 0.00000 42.40796
679 1 1 52.77570 0.00000 43.61962
680 1 1 53.47525 0.00000 44.83128
681 1 1 52.77570 0.00000 46.04293
682 1 1 53.47525 0.00000 47.25459
683 1 1 52.77570 0.00000 48.46625
684 1 1 53.47525 0.00000 49.67790
685 1 1 55.57390 0.00000 4.84662
686 1 1 54.87435 0.00000 6.05828
687 1 1 55.57390 0.00000 7.26994
688 1 1 54.87435 0.00000 8.48159
689 1 1 55.57390 0.00000 9.69325
690 1 1 54.87435 0.00000 10.90491
691 1 1 55.57390 0.00000 12.11656
692 1 1 54.87435 0.00000 13.32822
693 1 1 55.57390 0.00000 14.53987
694 1 1 54.87435 0.00000 15.75153
695 1 1 55.57390 0.00000 16.96319
696 1 1 54.87435 0.00000 18.17484
697 1 1 55.57390 0.00000 19.38650
698 1 1 54.87435 0.00000 20.59815
699 1 1 55.57390 0.00000 21.80981
700 1 1 54.87435 0.00000 23.02147
701 1 1 55.57390 0.00000 24.23312
702 1 1 54.87435 0.00000 25.44478
703 1 1 55.57390 0.00000 26.65644
704 1 1 54.87435 0.00000 27.86809
705 1 1 55.57390 0.00000 29.07975
706 1 1 54.87435 0.00000 30.29140
707 1 1 55.57390 0.00000 31.50306
708 1 1 54.87435 0.00000 32.71472
709 1 1 55.57390 0.00000 33.92637
710 1 1 54.87435 0.00000 35.13803
711 1 1 55.57390 0.00000 36.34968
712 1 1 54.87435 0.00000 37.56134
713 1 1 55.57390 0.00000 38.77300
714 1 1 54.87435 0.00000 39.98465
715 1 1 55.57390 0.00000 41.19631
716 1 1 54.87435 0.00000 42.40796
717 1 1 55.57390 0.00000 43.61962
718 1 1 54.87435 0.00000 44.83128
719 1 1 55.57390 0.00000 46.04293
720 1 1 54.87435 0.00000 47.25459
721 1 1 55.57390 0.00000 48.46625
722 1 1 54.87435 0.00000 49.67790
723 2 1 15.00000 0.00000 0.00000
724 2 1 15.69955 0.00000 1.21166
725 2 1 15.00000 0.00000 2.42331
726 2 1 15.69955 0.00000 3.63497
727 2 1 15.00000 0.00000 4.84662
728 2 1 15.69955 0.00000 6.05828
729 2 1 15.00000 0.00000 7.26994
730 2 1 15.69955 0.00000 8.48159
731 2 1 15.00000 0.00000 9.69325
732 2 1 15.69955 0.00000 10.90491
733 2 1 15.00000 0.00000 12.11656
734 2 1 15.69955 0.00000 13.32822
735 2 1 15.00000 0.00000 14.53987
736 2 1 15.69955 0.00000 15.75153
737 2 1 15.00000 0.00000 16.96319
738 2 1 15.69955 0.00000 18.17484
739 2 1 15.00000 0.00000 19.38650
740 2 1 15.69955 0.00000 20.59815
741 2 1 15.00000 0.00000 21.80981
742 2 1 15.69955 0.00000 23.02147
743 2 1 15.00000 0.00000 24.23312
744 2 1 15.69955 0.00000 25.44478
745 2 1 15.00000 0.00000 26.65644
746 2 1 15.69955 0.00000 27.86809
747 2 1 15.00000 0.00000 29.07975
748 2 1 15.69955 0.00000 30.29140
749 2 1 15.00000 0.00000 31.50306
750 2 1 15.69955 0.00000 32.71472
751 2 1 15.00000 0.00000 33.92637
752 2 1 15.69955 0.00000 35.13803
753 2 1 15.00000 0.00000 36.34968
754 2 1 15.69955 0.00000 37.56134
755 2 1 15.00000 0.00000 38.77300
756 2 1 15.69955 0.00000 39.98465
757 2 1 15.00000 0.00000 41.19631
758 2 1 15.69955 0.00000 42.40796
759 2 1 15.00000 0.00000 43.61962
760 2 1 15.69955 0.00000 44.83128
761 2 1 15.00000 0.00000 46.04293
762 2 1 15.69955 0.00000 47.25459
763 2 1 15.00000 0.00000 48.46625
764 2 1 15.69955 0.00000 49.67790
765 2 1 15.00000 0.00000 50.88956
766 2 1 15.69955 0.00000 52.10121
767 2 1 15.00000 0.00000 53.31287
768 2 1 15.69955 0.00000 54.52453
769 2 1 17.09865 0.00000 1.21166
770 2 1 17.79820 0.00000 2.42331
771 2 1 17.09865 0.00000 3.63497
772 2 1 17.79820 0.00000 50.88956
773 2 1 17.09865 0.00000 52.10121
774 2 1 17.79820 0.00000 53.31287
775 2 1 17.09865 0.00000 54.52453
776 2 1 17.79820 0.00000 -0.00000
777 2 1 19.19730 0.00000 0.00000
778 2 1 19.89685 0.00000 1.21166
779 2 1 19.19730 0.00000 2.42331
780 2 1 19.89685 0.00000 3.63497
781 2 1 19.19730 0.00000 50.88956
782 2 1 19.89685 0.00000 52.10121
783 2 1 19.19730 0.00000 53.31287
784 2 1 19.89685 0.00000 54.52453
785 2 1 21.29595 0.00000 1.21166
786 2 1 21.99550 0.00000 2.42331
787 2 1 21.29595 0.00000 3.63497
788 2 1 21.99550 0.00000 50.88956
789 2 1 21.29595 0.00000 52.10121
790 2 1 21.99550 0.00000 53.31287
791 2 1 21.29595 0.00000 54.52453
792 2 1 21.99550 0.00000 -0.00000
793 2 1 23.39460 0.00000 0.00000
794 2 1 24.09415 0.00000 1.21166
795 2 1 23.39460 0.00000 2.42331
796 2 1 24.09415 0.00000 3.63497
797 2 1 23.39460 0.00000 50.88956
798 2 1 24.09415 0.00000 52.10121
799 2 1 23.39460 0.00000 53.31287
800 2 1 24.09415 0.00000 54.52453
801 2 1 25.49325 0.00000 1.21166
802 2 1 26.19280 0.00000 2.42331
803 2 1 25.49325 0.00000 3.63497
804 2 1 26.19280 0.00000 50.88956
805 2 1 25.49325 0.00000 52.10121
806 2 1 26.19280 0.00000 53.31287
807 2 1 25.49325 0.00000 54.52453
808 2 1 26.19280 0.00000 -0.00000
809 2 1 27.59190 0.00000 0.00000
810 2 1 28.29145 0.00000 1.21166
811 2 1 27.59190 0.00000 2.42331
812 2 1 28.29145 0.00000 3.63497
813 2 1 27.59190 0.00000 50.88956
814 2 1 28.29145 0.00000 52.10121
815 2 1 27.59190 0.00000 53.31287
816 2 1 28.29145 0.00000 54.52453
817 2 1 29.69055 0.00000 1.21166
818 2 1 30.39010 0.00000 2.42331
819 2 1 29.69055 0.00000 3.63497
820 2 1 30.39010 0.00000 50.88956
821 2 1 29.69055 0.00000 52.10121
822 2 1 30.39010 0.00000 53.31287
823 2 1 29.69055 0.00000 54.52453
824 2 1 30.39010 0.00000 -0.00000
825 2 1 31.78920 0.00000 0.00000
826 2 1 32.48875 0.00000 1.21166
827 2 1 31.78920 0.00000 2.42331
828 2 1 32.48875 0.00000 3.63497
829 2 1 31.78920 0.00000 50.88956
830 2 1 32.48875 0.00000 52.10121
831 2 1 31.78920 0.00000 53.31287
832 2 1 32.48875 0.00000 54.52453
833 2 1 33.88785 0.00000 1.21166
834 2 1 34.58740 0.00000 2.42331
835 2 1 33.88785 0.00000 3.63497
836 2 1 34.58740 0.00000 50.88956
837 2 1 33.88785 0.00000 52.10121
838 2 1 34.58740 0.00000 53.31287
839 2 1 33.88785 0.00000 54.52453
840 2 1 34.58740 0.00000 -0.00000
841 2 1 35.98650 0.00000 0.00000
842 2 1 36.68605 0.00000 1.21166
843 2 1 35.98650 0.00000 2.42331
844 2 1 36.68605 0.00000 3.63497
845 2 1 35.98650 0.00000 50.88956
846 2 1 36.68605 0.00000 52.10121
847 2 1 35.98650 0.00000 53.31287
848 2 1 36.68605 0.00000 54.52453
849 2 1 38.08515 0.00000 1.21166
850 2 1 38.78470 0.00000 2.42331
851 2 1 38.08515 0.00000 3.63497
852 2 1 38.78470 0.00000 50.88956
853 2 1 38.08515 0.00000 52.10121
854 2 1 38.78470 0.00000 53.31287
855 2 1 38.08515 0.00000 54.52453
856 2 1 38.78470 0.00000 -0.00000
857 2 1 40.18380 0.00000 0.00000
858 2 1 40.88335 0.00000 1.21166
859 2 1 40.18380 0.00000 2.42331
860 2 1 40.88335 0.00000 3.63497
861 2 1 40.18380 0.00000 50.88956
862 2 1 40.88335 0.00000 52.10121
863 2 1 40.18380 0.00000 53.31287
864 2 1 40.88335 0.00000 54.52453
865 2 1 42.28245 0.00000 1.21166
866 2 1 42.98200 0.00000 2.42331
867 2 1 42.28245 0.00000 3.63497
868 2 1 42.98200 0.00000 50.88956
869 2 1 42.28245 0.00000 52.10121
870 2 1 42.98200 0.00000 53.31287
871 2 1 42.28245 0.00000 54.52453
872 2 1 42.98200 0.00000 -0.00000
873 2 1 44.38110 0.00000 0.00000
874 2 1 45.08065 0.00000 1.21166
875 2 1 44.38110 0.00000 2.42331
876 2 1 45.08065 0.00000 3.63497
877 2 1 44.38110 0.00000 50.88956
878 2 1 45.08065 0.00000 52.10121
879 2 1 44.38110 0.00000 53.31287
880 2 1 45.08065 0.00000 54.52453
881 2 1 46.47975 0.00000 1.21166
882 2 1 47.17930 0.00000 2.42331
883 2 1 46.47975 0.00000 3.63497
884 2 1 47.17930 0.00000 50.88956
885 2 1 46.47975 0.00000 52.10121
886 2 1 47.17930 0.00000 53.31287
887 2 1 46.47975 0.00000 54.52453
888 2 1 47.17930 0.00000 -0.00000
889 2 1 48.57840 0.00000 0.00000
890 2 1 49.27795 0.00000 1.21166
891 2 1 48.57840 0.00000 2.42331
892 2 1 49.27795 0.00000 3.63497
893 2 1 48.57840 0.00000 50.88956
894 2 1 49.27795 0.00000 52.10121
895 2 1 48.57840 0.00000 53.31287
896 2 1 49.27795 0.00000 54.52453
897 2 1 50.67705 0.00000 1.21166
898 2 1 51.37660 0.00000 2.42331
899 2 1 50.67705 0.00000 3.63497
900 2 1 51.37660 0.00000 50.88956
901 2 1 50.67705 0.00000 52.10121
902 2 1 51.37660 0.00000 53.31287
903 2 1 50.67705 0.00000 54.52453
904 2 1 51.37660 0.00000 -0.00000
905 2 1 52.77570 0.00000 0.00000
906 2 1 53.47525 0.00000 1.21166
907 2 1 52.77570 0.00000 2.42331
908 2 1 53.47525 0.00000 3.63497
909 2 1 52.77570 0.00000 50.88956
910 2 1 53.47525 0.00000 52.10121
911 2 1 52.77570 0.00000 53.31287
912 2 1 53.47525 0.00000 54.52453
913 2 1 54.87435 0.00000 1.21166
914 2 1 55.57390 0.00000 2.42331
915 2 1 54.87435 0.00000 3.63497
916 2 1 55.57390 0.00000 50.88956
917 2 1 54.87435 0.00000 52.10121
918 2 1 55.57390 0.00000 53.31287
919 2 1 54.87435 0.00000 54.52453
920 2 1 55.57390 0.00000 -0.00000
921 2 1 56.97300 0.00000 0.00000
922 2 1 57.67255 0.00000 1.21166
923 2 1 56.97300 0.00000 2.42331
924 2 1 57.67255 0.00000 3.63497
925 2 1 56.97300 0.00000 4.84662
926 2 1 57.67255 0.00000 6.05828
927 2 1 56.97300 0.00000 7.26994
928 2 1 57.67255 0.00000 8.48159
929 2 1 56.97300 0.00000 9.69325
930 2 1 57.67255 0.00000 10.90491
931 2 1 56.97300 0.00000 12.11656
932 2 1 57.67255 0.00000 13.32822
933 2 1 56.97300 0.00000 14.53987
934 2 1 57.67255 0.00000 15.75153
935 2 1 56.97300 0.00000 16.96319
936 2 1 57.67255 0.00000 18.17484
937 2 1 56.97300 0.00000 19.38650
938 2 1 57.67255 0.00000 20.59815
939 2 1 56.97300 0.00000 21.80981
940 2 1 57.67255 0.00000 23.02147
941 2 1 56.97300 0.00000 24.23312
942 2 1 57.67255 0.00000 25.44478
943 2 1 56.97300 0.00000 26.65644
944 2 1 57.67255 0.00000 27.86809
945 2 1 56.97300 0.00000 29.07975
946 2 1 57.67255 0.00000 30.29140
947 2 1 56.97300 0.00000 31.50306
948 2 1 57.67255 0.00000 32.71472
949 2 1 56.97300 0.00000 33.92637
950 2 1 57.67255 0.00000 35.13803
951 2 1 56.97300 0.00000 36.34968
952 2 1 57.67255 0.00000 37.56134
953 2 1 56.97300 0.00000 38.77300
954 2 1 57.67255 0.00000 39.98465
955 2 1 56.97300 0.00000 41.19631
956 2 1 57.67255 0.00000 42.40796
957 2 1 56.97300 0.00000 43.61962
958 2 1 57.67255 0.00000 44.83128
959 2 1 56.97300 0.00000 46.04293
960 2 1 57.67255 0.00000 47.25459
961 2 1 56.97300 0.00000 48.46625
962 2 1 57.67255 0.00000 49.67790
963 2 1 56.97300 0.00000 50.88956
964 2 1 57.67255 0.00000 52.10121
965 2 1 56.97300 0.00000 53.31287
966 2 1 57.67255 0.00000 54.52453
