LAMMPS (22 Jul 2025 - Update 5)
  using 4 OpenMP thread(s) per MPI task
# graphene thermal vibration run, generated by graphene_defect_ml

units metal
dimension 3
boundary p f p
atom_style molecular
read_data sheet.data
Reading data file ...
  orthogonal box = (1.3378 -12.5 -7.73579) to (71.3378 12.5 62.26421)
  1 by 1 by 1 MPI processor grid
  reading atoms ...
  966 atoms
Finding 1-2 1-3 1-4 neighbors ...
  special bond factors lj:    0        0        0       
  special bond factors coul:  0        0        0       
     0 = max # of 1-2 neighbors
     0 = max # of 1-3 neighbors
     0 = max # of 1-4 neighbors
     1 = max # of special neighbors
  special bonds CPU = 0.001 seconds
  read_data CPU = 0.026 seconds

group free molecule 1
722 atoms in group free
group fixed molecule 2
244 atoms in group fixed

pair_style airebo 2.0
pair_coeff * * CH_modified.airebo C
Reading airebo potential file CH_modified.airebo with DATE: 2011-10-25

velocity fixed set 0.0 0.0 0.0
fix freeze fixed setforce 0.0 0.0 0.0

#==== Stage 0: minimize the free atoms, border frozen ====
thermo 100
thermo_style custom step fmax fnorm
min_style cg
minimize 0.0 1e-05 10000 100000
Neighbor list info ...
  update: every = 1 steps, delay = 0 steps, check = yes
  max neighbors/atom: 2000, page size: 100000
  master list distance cutoff = 9.816371
  ghost atom cutoff = 9.816371
  binsize = 4.9081855, bins = 15 6 15
  1 neighbor lists, perpetual/occasional/extra = 1 0 0
  (1) pair airebo, perpetual
      attributes: full, newton on, ghost
      pair build: full/bin/ghost
      stencil: full/ghost/bin/3d
      bin: standard
Per MPI rank memory allocation (min/avg/max) = 12.01 | 12.01 | 12.01 Mbytes
   Step          Fmax          Fnorm     
         0   0.0075981578   0.066523468  
        57   8.6417075e-07  9.3349215e-06
Loop time of 0.540116 on 4 procs for 57 steps with 966 atoms

103.0% CPU use with 1 MPI tasks x 4 OpenMP threads

Minimization stats:
  Stopping criterion = force tolerance
  Energy initial, next-to-last, final = 
     -6948.05100076909  -6948.05113368039  -6948.05113368036
  Force two-norm initial, final = 0.066523468 9.3349215e-06
  Force max component initial, final = 0.0075981578 8.6417075e-07
  Final line search alpha, max atom move = 1 8.6417075e-07
  Iterations, force evaluations = 57 114

MPI task timing breakdown:
Section |  min time  |  avg time  |  max time  |%varavg| %total
---------------------------------------------------------------
Pair    | 0.53775    | 0.53775    | 0.53775    |   0.0 | 99.56
Bond    | 1.1526e-05 | 1.1526e-05 | 1.1526e-05 |   0.0 |  0.00
Neigh   | 0          | 0          | 0          |   0.0 |  0.00
Comm    | 0.00010189 | 0.00010189 | 0.00010189 |   0.0 |  0.02
Output  | 0          | 0          | 0          |   0.0 |  0.00
Modify  | 0.00026324 | 0.00026324 | 0.00026324 |   0.0 |  0.05
Other   |            | 0.001985   |            |       |  0.37

Nlocal:            966 ave         966 max         966 min
Histogram: 1 0 0 0 0 0 0 0 0 0
Nghost:             84 ave          84 max          84 min
Histogram: 1 0 0 0 0 0 0 0 0 0
Neighs:              0 ave           0 max           0 min
Histogram: 1 0 0 0 0 0 0 0 0 0
FullNghs:        99018 ave       99018 max       99018 min
Histogram: 1 0 0 0 0 0 0 0 0 0

Total # of neighbors = 99018
Ave neighs/atom = 102.50311
Ave special neighs/atom = 0
Neighbor list builds = 0
Dangerous builds = 0
reset_timestep 0

compute ydisp free displace/atom

velocity free create 300.0 12345 mom yes rot yes dist gaussian
compute freetemp free temp

timestep 0.001
thermo 1000
thermo_style custom step c_freetemp pe etotal press lx lz

#==== Stage 1: NVT relax, 10000 steps ====
fix nvt_relax free nvt temp 300.0 300.0 0.1
run 10000
Per MPI rank memory allocation (min/avg/max) = 11.26 | 11.26 | 11.26 Mbytes
   Step       c_freetemp       PotEng         TotEng         Press            Lx             Lz      
         0   300           -6948.0511     -6920.0922     -96.076424      70             70           
      1000   287.96306     -6922.3865     -6895.5494     -364.06367      70             70           
      2000   296.93645     -6919.4511     -6891.7777     -463.62815      70             70           
      3000   295.02024     -6919.6185     -6892.1236     -355.26831      70             70           
      4000   297.05344     -6921.5701     -6893.8857     -367.54224      70             70           
      5000   291.92629     -6920.8881     -6893.6816     -530.36971      70             70           
      6000   299.81349     -6919.8603     -6891.9187     -395.97023      70             70           
      7000   303.49119     -6921.9412     -6893.6569     -343.71859      70             70           
      8000   308.92049     -6921.6215     -6892.8312     -336.68545      70             70           
      9000   293.73244     -6919.944      -6892.5692     -398.84467      70             70           
     10000   314.13033     -6919.5227     -6890.2468     -569.28942      70             70           
Loop time of 43.6759 on 4 procs for 10000 steps with 966 atoms

Performance: 19.782 ns/day, 1.213 hours/ns, 228.959 timesteps/s, 221.175 katom-step/s
102.6% CPU use with 1 MPI tasks x 4 OpenMP threads

MPI task timing breakdown:
Section |  min time  |  avg time  |  max time  |%varavg| %total
---------------------------------------------------------------
Pair    | 43.437     | 43.437     | 43.437     |   0.0 | 99.45
Bond    | 0.00061673 | 0.00061673 | 0.00061673 |   0.0 |  0.00
Neigh   | 0.051614   | 0.051614   | 0.051614   |   0.0 |  0.12
Comm    | 0.006828   | 0.006828   | 0.006828   |   0.0 |  0.02
Output  | 0.00031321 | 0.00031321 | 0.00031321 |   0.0 |  0.00
Modify  | 0.14719    | 0.14719    | 0.14719    |   0.0 |  0.34
Other   |            | 0.03274    |            |       |  0.07

Nlocal:            966 ave         966 max         966 min
Histogram: 1 0 0 0 0 0 0 0 0 0
Nghost:             84 ave          84 max          84 min
Histogram: 1 0 0 0 0 0 0 0 0 0
Neighs:              0 ave           0 max           0 min
Histogram: 1 0 0 0 0 0 0 0 0 0
FullNghs:        96830 ave       96830 max       96830 min
Histogram: 1 0 0 0 0 0 0 0 0 0

Total # of neighbors = 96830
Ave neighs/atom = 100.2381
Ave special neighs/atom = 0
Neighbor list builds = 29
Dangerous builds = 0
unfix nvt_relax
#=== Stage 2: NPT vibrate, 30000 steps, dump out-of-plane displacement ====
dump vib free custom 50 vibration.lammpstrj id x y z c_ydisp[2]
dump_modify vib sort id
dump full_struct all custom 50 full_structure.lammpstrj id x y z
dump_modify full_struct sort id
fix npt_vibrate free npt temp 300.0 300.0 0.1 x 0.0 0.0 1.0 z 0.0 0.0 1.0 dilate free
fix_modify npt_vibrate temp freetemp
WARNING: Temperature for fix modify is not for group all (src/fix_nh.cpp:1402)
run 30000
Per MPI rank memory allocation (min/avg/max) = 11.26 | 11.26 | 11.26 Mbytes
   Step       c_freetemp       PotEng         TotEng         Press            Lx             Lz      
     10000   314.13033     -6919.5227     -6890.2468     -569.28942      70             70           
     11000   315.93255     -6926.3776     -6896.9338     -567.617        51.212825      74.212618    
     12000   308.05455     -6923.9988     -6895.2891      2434.4533      44.259845      86.729875    
     13000   288.89897     -6928.9175     -6901.9931      331.40694      44.263995      116.04783    
     14000   262.6621      -6925.7604     -6901.2812      629.15586      44.262198      151.78093    
     15000   323.96077     -6926.3452     -6896.1531      79.803206      44.264394      193.51508    
     16000   289.21788     -6926.1409     -6899.1868      188.28201      44.26432       243.05885    
     17000   310.48406     -6923.9568     -6895.0208      156.47173      44.263995      301.00045    
     18000   299.82294     -6924.095      -6896.1525      176.31212      44.263194      374.34003    
     19000   281.32987     -6926.2249     -6900.0059     -60.729562      44.265453      466.57319    
     20000   303.60437     -6924.7832     -6896.4883      56.866914      44.264794      577.52435    
     21000   298.61396     -6923.2087     -6895.3789      68.048641      44.264276      708.36154    
     22000   287.96773     -6924.3942     -6897.5566     -93.112048      44.266889      869.54872    
     23000   281.3241      -6924.6003     -6898.3818     -36.504205      44.265766      1064.1636    
     24000   300.35305     -6926.2056     -6898.2138      66.870093      44.26336       1313.1118    
     25000   322.35895     -6924.4088     -6894.366       65.022451      44.262988      1613.4074    
     26000   279.75533     -6923.3052     -6897.233       44.038682      44.26308       1960.4371    
     27000   286.51164     -6924.8208     -6898.1189      33.534468      44.263676      2385.4491    
     28000   291.91326     -6923.097      -6895.8917      5.3266224      44.264866      2885.9804    
     29000   315.04467     -6924.1642     -6894.8031      3.4977544      44.264923      3496.2926    
     30000   290.3853      -6925.7421     -6898.6792     -6.3486114      44.265721      4229.5756    
     31000   280.69342     -6923.7156     -6897.5559      20.271205      44.262775      5132.5703    
     32000   304.66085     -6923.717      -6895.3236      9.1512022      44.264222      6252.7851    
     33000   319.70953     -6925.201      -6895.4051     -1.6777797      44.265891      7676.2962    
     34000   281.83904     -6923.9969     -6897.7305      9.7319471      44.263391      9382.0034    
     35000   283.5883      -6924.5779     -6898.1485      2.8530021      44.26483       11474.313    
     36000   320.46674     -6923.7856     -6893.9192     -2.0137448      44.266213      13916.595    
     37000   309.22751     -6923.8542     -6895.0352     -3.6840808      44.266824      16858.367    
     38000   297.57896     -6924.9804     -6897.247      -0.16550519     44.265735      20266.831    
     39000   314.27554     -6924.3312     -6895.0418      2.6791512      44.264234      24457.582    
     40000   286.65415     -6923.5626     -6896.8475      1.2560266      44.264756      29672.611    
Loop time of 197.124 on 4 procs for 30000 steps with 966 atoms

Performance: 13.149 ns/day, 1.825 hours/ns, 152.188 timesteps/s, 147.014 katom-step/s
251.8% CPU use with 1 MPI tasks x 4 OpenMP threads

MPI task timing breakdown:
Section |  min time  |  avg time  |  max time  |%varavg| %total
---------------------------------------------------------------
Pair    | 173.02     | 173.02     | 173.02     |   0.0 | 87.77
Bond    | 0.0021491  | 0.0021491  | 0.0021491  |   0.0 |  0.00
Neigh   | 20.496     | 20.496     | 20.496     |   0.0 | 10.40
Comm    | 0.19133    | 0.19133    | 0.19133    |   0.0 |  0.10
Output  | 1.6534     | 1.6534     | 1.6534     |   0.0 |  0.84
Modify  | 1.3301     | 1.3301     | 1.3301     |   0.0 |  0.67
Other   |            | 0.4341     |            |       |  0.22

Nlocal:            966 ave         966 max         966 min
Histogram: 1 0 0 0 0 0 0 0 0 0
Nghost:            414 ave         414 max         414 min
Histogram: 1 0 0 0 0 0 0 0 0 0
Neighs:              0 ave           0 max           0 min
Histogram: 1 0 0 0 0 0 0 0 0 0
FullNghs:       106804 ave      106804 max      106804 min
Histogram: 1 0 0 0 0 0 0 0 0 0

Total # of neighbors = 106804
Ave neighs/atom = 110.56315
Ave special neighs/atom = 0
Neighbor list builds = 9959
Dangerous builds = 5878
unfix npt_vibrate
Total wall time: 0:04:01
