# graphene sheet, generated by graphene_defect_ml

966 atoms
1 atom types

1.33780 71.33780 xlo xhi
-12.50000 12.50000 ylo yhi
-7.73579 62.26421 zlo zhi

Masses

1 12.0107

Atoms # molecular

1 1 1 17.79840 0.00000 4.84697
2 1 1 17.09880 0.00000 6.05871
3 1 1 17.79840 0.00000 7.27046
4 1 1 17.09880 0.00000 8.48220
5 1 1 17.79840 0.00000 9.69394
6 1 1 17.09880 0.00000 10.90568
7 1 1 17.79840 0.00000 12.11743
8 1 1 17.09880 0.00000 13.32917
9 1 1 17.79840 0.00000 14.54091
10 1 1 17.09880 0.00000 15.75266
11 1 1 17.79840 0.00000 16.96440
12 1 1 17.09880 0.00000 18.17614
13 1 1 17.79840 0.00000 19.38788
14 1 1 17.09880 0.00000 20.59963
15 1 1 17.79840 0.00000 21.81137
16 1 1 17.09880 0.00000 23.02311
17 1 1 17.79840 0.00000 24.23485
18 1 1 17.09880 0.00000 25.44660
19 1 1 17.79840 0.00000 26.65834
20 1 1 17.09880 0.00000 27.87008
21 1 1 17.79840 0.00000 29.08183
22 1 1 17.09880 0.00000 30.29357
23 1 1 17.79840 0.00000 31.50531
24 1 1 17.09880 0.00000 32.71705
25 1 1 17.79840 0.00000 33.92880
26 1 1 17.09880 0.00000 35.14054
27 1 1 17.79840 0.00000 36.35228
28 1 1 17.09880 0.00000 37.56403
29 1 1 17.79840 0.00000 38.77577
30 1 1 17.09880 0.00000 39.98751
31 1 1 17.79840 0.00000 41.19925
32 1 1 17.09880 0.00000 42.41100
33 1 1 17.79840 0.00000 43.62274
34 1 1 17.09880 0.00000 44.83448
35 1 1 17.79840 0.00000 46.04622
36 1 1 17.09880 0.00000 47.25797
37 1 1 17.79840 0.00000 48.46971
38 1 1 17.09880 0.00000 49.68145
39 1 1 19.19760 0.00000 4.84697
40 1 1 19.89720 0.00000 6.05871
41 1 1 19.19760 0.00000 7.27046
42 1 1 19.89720 0.00000 8.48220
43 1 1 19.19760 0.00000 9.69394
44 1 1 19.89720 0.00000 10.90568
45 1 1 19.19760 0.00000 12.11743
46 1 1 19.89720 0.00000 13.32917
47 1 1 19.19760 0.00000 14.54091
48 1 1 19.89720 0.00000 15.75266
49 1 1 19.19760 0.00000 16.96440
50 1 1 19.89720 0.00000 18.17614
51 1 1 19.19760 0.00000 19.38788
52 1 1 19.89720 0.00000 20.59963
53 1 1 19.19760 0.00000 21.81137
54 1 1 19.89720 0.00000 23.02311
55 1 1 19.19760 0.00000 24.23485
56 1 1 19.89720 0.00000 25.44660
57 1 1 19.19760 0.00000 26.65834
58 1 1 19.89720 0.00000 27.87008
59 1 1 19.19760 0.00000 29.08183
60 1 1 19.89720 0.00000 30.29357
61 1 1 19.19760 0.00000 31.50531
62 1 1 19.89720 0.00000 32.71705
63 1 1 19.19760 0.00000 33.92880
64 1 1 19.89720 0.00000 35.14054
65 1 1 19.19760 0.00000 36.35228
66 1 1 19.89720 0.00000 37.56403
67 1 1 19.19760 0.00000 38.77577
68 1 1 19.89720 0.00000 39.98751
69 1 1 19.19760 0.00000 41.19925
70 1 1 19.89720 0.00000 42.41100
71 1 1 19.19760 0.00000 43.62274
72 1 1 19.89720 0.00000 44.83448
73 1 1 19.19760 0.00000 46.04622
74 1 1 19.89720 0.00000 47.25797
75 1 1 19.19760 0.00000 48.46971
76 1 1 19.89720 0.00000 49.68145
77 1 1 21.99600 0.00000 4.84697
78 1 1 21.29640 0.00000 6.05871
79 1 1 21.99600 0.00000 7.27046
80 1 1 21.29640 0.00000 8.48220
81 1 1 21.99600 0.00000 9.69394
82 1 1 21.29640 0.00000 10.90568
83 1 1 21.99600 0.00000 12.11743
84 1 1 21.29640 0.00000 13.32917
85 1 1 21.99600 0.00000 14.54091
86 1 1 21.29640 0.00000 15.75266
87 1 1 21.99600 0.00000 16.96440
88 1 1 21.29640 0.00000 18.17614
89 1 1 21.99600 0.00000 19.38788
90 1 1 21.29640 0.00000 20.59963
91 1 1 21.99600 0.00000 21.81137
92 1 1 21.29640 0.00000 23.02311
93 1 1 21.99600 0.00000 24.23485
94 1 1 21.29640 0.00000 25.44660
95 1 1 21.99600 0.00000 26.65834
96 1 1 21.29640 0.00000 27.87008
97 1 1 21.99600 0.00000 29.08183
98 1 1 21.29640 0.00000 30.29357
99 1 1 21.99600 0.00000 31.50531
100 1 1 21.29640 0.00000 32.71705
101 1 1 21.99600 0.00000 33.92880
102 1 1 21.29640 0.00000 35.14054
103 1 1 21.99600 0.00000 36.35228
104 1 1 21.29640 0.00000 37.56403
105 1 1 21.99600 0.00000 38.77577
106 1 1 21.29640 0.00000 39.98751
107 1 1 21.99600 0.00000 41.19925
108 1 1 21.29640 0.00000 42.41100
109 1 1 21.99600 0.00000 43.62274
110 1 1 21.29640 0.00000 44.83448
111 1 1 21.99600 0.00000 46.04622
112 1 1 21.29640 0.00000 47.25797
113 1 1 21.99600 0.00000 48.46971
114 1 1 21.29640 0.00000 49.68145
115 1 1 23.39520 0.00000 4.84697
116 1 1 24.09480 0.00000 6.05871
117 1 1 23.39520 0.00000 7.27046
118 1 1 24.09480 0.00000 8.48220
119 1 1 23.39520 0.00000 9.69394
120 1 1 24.09480 0.00000 10.90568
121 1 1 23.39520 0.00000 12.11743
122 1 1 24.09480 0.00000 13.32917
123 1 1 23.39520 0.00000 14.54091
124 1 1 24.09480 0.00000 15.75266
125 1 1 23.39520 0.00000 16.96440
126 1 1 24.09480 0.00000 18.17614
127 1 1 23.39520 0.00000 19.38788
128 1 1 24.09480 0.00000 20.59963
129 1 1 23.39520 0.00000 21.81137
130 1 1 24.09480 0.00000 23.02311
131 1 1 23.39520 0.00000 24.23485
132 1 1 24.09480 0.00000 25.44660
133 1 1 23.39520 0.00000 26.65834
134 1 1 24.09480 0.00000 27.87008
135 1 1 23.39520 0.00000 29.08183
136 1 1 24.09480 0.00000 30.29357
137 1 1 23.39520 0.00000 31.50531
138 1 1 24.09480 0.00000 32.71705
139 1 1 23.39520 0.00000 33.92880
140 1 1 24.09480 0.00000 35.14054
141 1 1 23.39520 0.00000 36.35228
142 1 1 24.09480 0.00000 37.56403
143 1 1 23.39520 0.00000 38.77577
144 1 1 24.09480 0.00000 39.98751
145 1 1 23.39520 0.00000 41.19925
146 1 1 24.09480 0.00000 42.41100
147 1 1 23.39520 0.00000 43.62274
148 1 1 24.09480 0.00000 44.83448
149 1 1 23.39520 0.00000 46.04622
150 1 1 24.09480 0.00000 47.25797
151 1 1 23.39520 0.00000 48.46971
152 1 1 24.09480 0.00000 49.68145
153 1 1 26.19360 0.00000 4.84697
154 1 1 25.49400 0.00000 6.05871
155 1 1 26.19360 0.00000 7.27046
156 1 1 25.49400 0.00000 8.48220
157 1 1 26.19360 0.00000 9.69394
158 1 1 25.49400 0.00000 10.90568
159 1 1 26.19360 0.00000 12.11743
160 1 1 25.49400 0.00000 13.32917
161 1 1 26.19360 0.00000 14.54091
162 1 1 25.49400 0.00000 15.75266
163 1 1 26.19360 0.00000 16.96440
164 1 1 25.49400 0.00000 18.17614
165 1 1 26.19360 0.00000 19.38788
166 1 1 25.49400 0.00000 20.59963
167 1 1 26.19360 0.00000 21.81137
168 1 1 25.49400 0.00000 23.02311
169 1 1 26.19360 0.00000 24.23485
170 1 1 25.49400 0.00000 25.44660
171 1 1 26.19360 0.00000 26.65834
172 1 1 25.49400 0.00000 27.87008
173 1 1 26.19360 0.00000 29.08183
174 1 1 25.49400 0.00000 30.29357
175 1 1 26.19360 0.00000 31.50531
176 1 1 25.49400 0.00000 32.71705
177 1 1 26.19360 0.00000 33.92880
178 1 1 25.49400 0.00000 35.14054
179 1 1 26.19360 0.00000 36.35228
180 1 1 25.49400 0.00000 37.56403
181 1 1 26.19360 0.00000 38.77577
182 1 1 25.49400 0.00000 39.98751
183 1 1 26.19360 0.00000 41.19925
184 1 1 25.49400 0.00000 42.41100
185 1 1 26.19360 0.00000 43.62274
186 1 1 25.49400 0.00000 44.83448
187 1 1 26.19360 0.00000 46.04622
188 1 1 25.49400 0.00000 47.25797
189 1 1 26.19360 0.00000 48.46971
190 1 1 25.49400 0.00000 49.68145
191 1 1 27.59280 0.00000 4.84697
192 1 1 28.29240 0.00000 6.05871
193 1 1 27.59280 0.00000 7.27046
194 1 1 28.29240 0.00000 8.48220
195 1 1 27.59280 0.00000 9.69394
196 1 1 28.29240 0.00000 10.90568
197 1 1 27.59280 0.00000 12.11743
198 1 1 28.29240 0.00000 13.32917
199 1 1 27.59280 0.00000 14.54091
200 1 1 28.29240 0.00000 15.75266
201 1 1 27.59280 0.00000 16.96440
202 1 1 28.29240 0.00000 18.17614
203 1 1 27.59280 0.00000 19.38788
204 1 1 28.29240 0.00000 20.59963
205 1 1 27.59280 0.00000 21.81137
206 1 1 28.29240 0.00000 23.02311
207 1 1 27.59280 0.00000 24.23485
208 1 1 28.29240 0.00000 25.44660
209 1 1 27.59280 0.00000 26.65834
210 1 1 28.29240 0.00000 27.87008
211 1 1 27.59280 0.00000 29.08183
212 1 1 28.29240 0.00000 30.29357
213 1 1 27.59280 0.00000 31.50531
214 1 1 28.29240 0.00000 32.71705
215 1 1 27.59280 0.00000 33.92880
216 1 1 28.29240 0.00000 35.14054
217 1 1 27.59280 0.00000 36.35228
218 1 1 28.29240 0.00000 37.56403
219 1 1 27.59280 0.00000 38.77577
220 1 1 28.29240 0.00000 39.98751
221 1 1 27.59280 0.00000 41.19925
222 1 1 28.29240 0.00000 42.41100
223 1 1 27.59280 0.00000 43.62274
224 1 1 28.29240 0.00000 44.83448
225 1 1 27.59280 0.00000 46.04622
226 1 1 28.29240 0.00000 47.25797
227 1 1 27.59280 0.00000 48.46971
228 1 1 28.29240 0.00000 49.68145
229 1 1 30.39120 0.00000 4.84697
230 1 1 29.69160 0.00000 6.05871
231 1 1 30.39120 0.00000 7.27046
232 1 1 29.69160 0.00000 8.48220
233 1 1 30.39120 0.00000 9.69394
234 1 1 29.69160 0.00000 10.90568
235 1 1 30.39120 0.00000 12.11743
236 1 1 29.69160 0.00000 13.32917
237 1 1 30.39120 0.00000 14.54091
238 1 1 29.69160 0.00000 15.75266
239 1 1 30.39120 0.00000 16.96440
240 1 1 29.69160 0.00000 18.17614
241 1 1 30.39120 0.00000 19.38788
242 1 1 29.69160 0.00000 20.59963
243 1 1 30.39120 0.00000 21.81137
244 1 1 29.69160 0.00000 23.02311
245 1 1 30.39120 0.00000 24.23485
246 1 1 29.69160 0.00000 25.44660
247 1 1 30.39120 0.00000 26.65834
248 1 1 29.69160 0.00000 27.87008
249 1 1 30.39120 0.00000 29.08183
250 1 1 29.69160 0.00000 30.29357
251 1 1 30.39120 0.00000 31.50531
252 1 1 29.69160 0.00000 32.71705
253 1 1 30.39120 0.00000 33.92880
254 1 1 29.69160 0.00000 35.14054
255 1 1 30.39120 0.00000 36.35228
256 1 1 29.69160 0.00000 37.56403
257 1 1 30.39120 0.00000 38.77577
258 1 1 29.69160 0.00000 39.98751
259 1 1 30.39120 0.00000 41.19925
260 1 1 29.69160 0.00000 42.41100
261 1 1 30.39120 0.00000 43.62274
262 1 1 29.69160 0.00000 44.83448
263 1 1 30.39120 0.00000 46.04622
264 1 1 29.69160 0.00000 47.25797
265 1 1 30.39120 0.00000 48.46971
266 1 1 29.69160 0.00000 49.68145
267 1 1 31.79040 0.00000 4.84697
268 1 1 32.49000 0.00000 6.05871
269 1 1 31.79040 0.00000 7.27046
270 1 1 32.49000 0.00000 8.48220
271 1 1 31.79040 0.00000 9.69394
272 1 1 32.49000 0.00000 10.90568
273 1 1 31.79040 0.00000 12.11743
274 1 1 32.49000 0.00000 13.32917
275 1 1 31.79040 0.00000 14.54091
276 1 1 32.49000 0.00000 15.75266
277 1 1 31.79040 0.00000 16.96440
278 1 1 32.49000 0.00000 18.17614
279 1 1 31.79040 0.00000 19.38788
280 1 1 32.49000 0.00000 20.59963
281 1 1 31.79040 0.00000 21.81137
282 1 1 32.49000 0.00000 23.02311
283 1 1 31.79040 0.00000 24.23485
284 1 1 32.49000 0.00000 25.44660
285 1 1 31.79040 0.00000 26.65834
286 1 1 32.49000 0.00000 27.87008
287 1 1 31.79040 0.00000 29.08183
288 1 1 32.49000 0.00000 30.29357
289 1 1 31.79040 0.00000 31.50531
290 1 1 32.49000 0.00000 32.71705
291 1 1 31.79040 0.00000 33.92880
292 1 1 32.49000 0.00000 35.14054
293 1 1 31.79040 0.00000 36.35228
294 1 1 32.49000 0.00000 37.56403
295 1 1 31.79040 0.00000 38.77577
296 1 1 32.49000 0.00000 39.98751
297 1 1 31.79040 0.00000 41.19925
298 1 1 32.49000 0.00000 42.41100
299 1 1 31.79040 0.00000 43.62274
300 1 1 32.49000 0.00000 44.83448
301 1 1 31.79040 0.00000 46.04622
302 1 1 32.49000 0.00000 47.25797
303 1 1 31.79040 0.00000 48.46971
304 1 1 32.49000 0.00000 49.68145
305 1 1 34.58880 0.00000 4.84697
306 1 1 33.88920 0.00000 6.05871
307 1 1 34.58880 0.00000 7.27046
308 1 1 33.88920 0.00000 8.48220
309 1 1 34.58880 0.00000 9.69394
310 1 1 33.88920 0.00000 10.90568
311 1 1 34.58880 0.00000 12.11743
312 1 1 33.88920 0.00000 13.32917
313 1 1 34.58880 0.00000 14.54091
314 1 1 33.88920 0.00000 15.75266
315 1 1 34.58880 0.00000 16.96440
316 1 1 33.88920 0.00000 18.17614
317 1 1 34.58880 0.00000 19.38788
318 1 1 33.88920 0.00000 20.59963
319 1 1 34.58880 0.00000 21.81137
320 1 1 33.88920 0.00000 23.02311
321 1 1 34.58880 0.00000 24.23485
322 1 1 33.88920 0.00000 25.44660
323 1 1 34.58880 0.00000 26.65834
324 1 1 33.88920 0.00000 27.87008
325 1 1 34.58880 0.00000 29.08183
326 1 1 33.88920 0.00000 30.29357
327 1 1 34.58880 0.00000 31.50531
328 1 1 33.88920 0.00000 32.71705
329 1 1 34.58880 0.00000 33.92880
330 1 1 33.88920 0.00000 35.14054
331 1 1 34.58880 0.00000 36.35228
332 1 1 33.88920 0.00000 37.56403
333 1 1 34.58880 0.00000 38.77577
334 1 1 33.88920 0.00000 39.98751
335 1 1 34.58880 0.00000 41.19925
336 1 1 33.88920 0.00000 42.41100
337 1 1 34.58880 0.00000 43.62274
338 1 1 33.88920 0.00000 44.83448
339 1 1 34.58880 0.00000 46.04622
340 1 1 33.88920 0.00000 47.25797
341 1 1 34.58880 0.00000 48.46971
342 1 1 33.88920 0.00000 49.68145
343 1 1 35.98800 0.00000 4.84697
344 1 1 36.68760 0.00000 6.05871
345 1 1 35.98800 0.00000 7.27046
346 1 1 36.68760 0.00000 8.48220
347 1 1 35.98800 0.00000 9.69394
348 1 1 36.68760 0.00000 10.90568
349 1 1 35.98800 0.00000 12.11743
350 1 1 36.68760 0.00000 13.32917
351 1 1 35.98800 0.00000 14.54091
352 1 1 36.68760 0.00000 15.75266
353 1 1 35.98800 0.00000 16.96440
354 1 1 36.68760 0.00000 18.17614
355 1 1 35.98800 0.00000 19.38788
356 1 1 36.68760 0.00000 20.59963
357 1 1 35.98800 0.00000 21.81137
358 1 1 36.68760 0.00000 23.02311
359 1 1 35.98800 0.00000 24.23485
360 1 1 36.68760 0.00000 25.44660
361 1 1 35.98800 0.00000 26.65834
362 1 1 36.68760 0.00000 27.87008
363 1 1 35.98800 0.00000 29.08183
364 1 1 36.68760 0.00000 30.29357
365 1 1 35.98800 0.00000 31.50531
366 1 1 36.68760 0.00000 32.71705
367 1 1 35.98800 0.00000 33.92880
368 1 1 36.68760 0.00000 35.14054
369 1 1 35.98800 0.00000 36.35228
370 1 1 36.68760 0.00000 37.56403
371 1 1 35.98800 0.00000 38.77577
372 1 1 36.68760 0.00000 39.98751
373 1 1 35.98800 0.00000 41.19925
374 1 1 36.68760 0.00000 42.41100
375 1 1 35.98800 0.00000 43.62274
376 1 1 36.68760 0.00000 44.83448
377 1 1 35.98800 0.00000 46.04622
378 1 1 36.68760 0.00000 47.25797
379 1 1 35.98800 0.00000 48.46971
380 1 1 36.68760 0.00000 49.68145
381 1 1 38.78640 0.00000 4.84697
382 1 1 38.08680 0.00000 6.05871
383 1 1 38.78640 0.00000 7.27046
384 1 1 38.08680 0.00000 8.48220
385 1 1 38.78640 0.00000 9.69394
386 1 1 38.08680 0.00000 10.90568
387 1 1 38.78640 0.00000 12.11743
388 1 1 38.08680 0.00000 13.32917
389 1 1 38.78640 0.00000 14.54091
390 1 1 38.08680 0.00000 15.75266
391 1 1 38.78640 0.00000 16.96440
392 1 1 38.08680 0.00000 18.17614
393 1 1 38.78640 0.00000 19.38788
394 1 1 38.08680 0.00000 20.59963
395 1 1 38.78640 0.00000 21.81137
396 1 1 38.08680 0.00000 23.02311
397 1 1 38.78640 0.00000 24.23485
398 1 1 38.08680 0.00000 25.44660
399 1 1 38.78640 0.00000 26.65834
400 1 1 38.08680 0.00000 27.87008
401 1 1 38.78640 0.00000 29.08183
402 1 1 38.08680 0.00000 30.29357
403 1 1 38.78640 0.00000 31.50531
404 1 1 38.08680 0.00000 32.71705
405 1 1 38.78640 0.00000 33.92880
406 1 1 38.08680 0.00000 35.14054
407 1 1 38.78640 0.00000 36.35228
408 1 1 38.08680 0.00000 37.56403
409 1 1 38.78640 0.00000 38.77577
410 1 1 38.08680 0.00000 39.98751
411 1 1 38.78640 0.00000 41.19925
412 1 1 38.08680 0.00000 42.41100
413 1 1 38.78640 0.00000 43.62274
414 1 1 38.08680 0.00000 44.83448
415 1 1 38.78640 0.00000 46.04622
416 1 1 38.08680 0.00000 47.25797
417 1 1 38.78640 0.00000 48.46971
418 1 1 38.08680 0.00000 49.68145
419 1 1 40.18560 0.00000 4.84697
420 1 1 40.88520 0.00000 6.05871
421 1 1 40.18560 0.00000 7.27046
422 1 1 40.88520 0.00000 8.48220
423 1 1 40.18560 0.00000 9.69394
424 1 1 40.88520 0.00000 10.90568
425 1 1 40.18560 0.00000 12.11743
426 1 1 40.88520 0.00000 13.32917
427 1 1 40.18560 0.00000 14.54091
428 1 1 40.88520 0.00000 15.75266
429 1 1 40.18560 0.00000 16.96440
430 1 1 40.88520 0.00000 18.17614
431 1 1 40.18560 0.00000 19.38788
432 1 1 40.88520 0.00000 20.59963
433 1 1 40.18560 0.00000 21.81137
434 1 1 40.88520 0.00000 23.02311
435 1 1 40.18560 0.00000 24.23485
436 1 1 40.88520 0.00000 25.44660
437 1 1 40.18560 0.00000 26.65834
438 1 1 40.88520 0.00000 27.87008
439 1 1 40.18560 0.00000 29.08183
440 1 1 40.88520 0.00000 30.29357
441 1 1 40.18560 0.00000 31.50531
442 1 1 40.88520 0.00000 32.71705
443 1 1 40.18560 0.00000 33.92880
444 1 1 40.88520 0.00000 35.14054
445 1 1 40.18560 0.00000 36.35228
446 1 1 40.88520 0.00000 37.56403
447 1 1 40.18560 0.00000 38.77577
448 1 1 40.88520 0.00000 39.98751
449 1 1 40.18560 0.00000 41.19925
450 1 1 40.88520 0.00000 42.41100
451 1 1 40.18560 0.00000 43.62274
452 1 1 40.88520 0.00000 44.83448
453 1 1 40.18560 0.00000 46.04622
454 1 1 40.88520 0.00000 47.25797
455 1 1 40.18560 0.00000 48.46971
456 1 1 40.88520 0.00000 49.68145
457 1 1 42.98400 0.00000 4.84697
458 1 1 42.28440 0.00000 6.05871
459 1 1 42.98400 0.00000 7.27046
460 1 1 42.28440 0.00000 8.48220
461 1 1 42.98400 0.00000 9.69394
462 1 1 42.28440 0.00000 10.90568
463 1 1 42.98400 0.00000 12.11743
464 1 1 42.28440 0.00000 13.32917
465 1 1 42.98400 0.00000 14.54091
466 1 1 42.28440 0.00000 15.75266
467 1 1 42.98400 0.00000 16.96440
468 1 1 42.28440 0.00000 18.17614
469 1 1 42.98400 0.00000 19.38788
470 1 1 42.28440 0.00000 20.59963
471 1 1 42.98400 0.00000 21.81137
472 1 1 42.28440 0.00000 23.02311
473 1 1 42.98400 0.00000 24.23485
474 1 1 42.28440 0.00000 25.44660
475 1 1 42.98400 0.00000 26.65834
476 1 1 42.28440 0.00000 27.87008
477 1 1 42.98400 0.00000 29.08183
478 1 1 42.28440 0.00000 30.29357
479 1 1 42.98400 0.00000 31.50531
480 1 1 42.28440 0.00000 32.71705
481 1 1 42.98400 0.00000 33.92880
482 1 1 42.28440 0.00000 35.14054
483 1 1 42.98400 0.00000 36.35228
484 1 1 42.28440 0.00000 37.56403
485 1 1 42.98400 0.00000 38.77577
486 1 1 42.28440 0.00000 39.98751
487 1 1 42.98400 0.00000 41.19925
488 1 1 42.28440 0.00000 42.41100
489 1 1 42.98400 0.00000 43.62274
490 1 1 42.28440 0.00000 44.83448
491 1 1 42.98400 0.00000 46.04622
492 1 1 42.28440 0.00000 47.25797
493 1 1 42.98400 0.00000 48.46971
494 1 1 42.28440 0.00000 49.68145
495 1 1 44.38320 0.00000 4.84697
496 1 1 45.08280 0.00000 6.05871
497 1 1 44.38320 0.00000 7.27046
498 1 1 45.08280 0.00000 8.48220
499 1 1 44.38320 0.00000 9.69394
500 1 1 45.08280 0.00000 10.90568
501 1 1 44.38320 0.00000 12.11743
502 1 1 45.08280 0.00000 13.32917
503 1 1 44.38320 0.00000 14.54091
504 1 1 45.08280 0.00000 15.75266
505 1 1 44.38320 0.00000 16.96440
506 1 1 45.08280 0.00000 18.17614
507 1 1 44.38320 0.00000 19.38788
508 1 1 45.08280 0.00000 20.59963
509 1 1 44.38320 0.00000 21.81137
510 1 1 45.08280 0.00000 23.02311
511 1 1 44.38320 0.00000 24.23485
512 1 1 45.08280 0.00000 25.44660
513 1 1 44.38320 0.00000 26.65834
514 1 1 45.08280 0.00000 27.87008
515 1 1 44.38320 0.00000 29.08183
516 1 1 45.08280 0.00000 30.29357
517 1 1 44.38320 0.00000 31.50531
518 1 1 45.08280 0.00000 32.71705
519 1 1 44.38320 0.00000 33.92880
520 1 1 45.08280 0.00000 35.14054
521 1 1 44.38320 0.00000 36.35228
522 1 1 45.08280 0.00000 37.56403
523 1 1 44.38320 0.00000 38.77577
524 1 1 45.08280 0.00000 39.98751
525 1 1 44.38320 0.00000 41.19925
526 1 1 45.08280 0.00000 42.41100
527 1 1 44.38320 0.00000 43.62274
528 1 1 45.08280 0.00000 44.83448
529 1 1 44.38320 0.00000 46.04622
530 1 1 45.08280 0.00000 47.25797
531 1 1 44.38320 0.00000 48.46971
532 1 1 45.08280 0.00000 49.68145
533 1 1 47.18160 0.00000 4.84697
534 1 1 46.48200 0.00000 6.05871
535 1 1 47.18160 0.00000 7.27046
536 1 1 46.48200 0.00000 8.48220
537 1 1 47.18160 0.00000 9.69394
538 1 1 46.48200 0.00000 10.90568
539 1 1 47.18160 0.00000 12.11743
540 1 1 46.48200 0.00000 13.32917
541 1 1 47.18160 0.00000 14.54091
542 1 1 46.48200 0.00000 15.75266
543 1 1 47.18160 0.00000 16.96440
544 1 1 46.48200 0.00000 18.17614
545 1 1 47.18160 0.00000 19.38788
546 1 1 46.48200 0.00000 20.59963
547 1 1 47.18160 0.00000 21.81137
548 1 1 46.48200 0.00000 23.02311
549 1 1 47.18160 0.00000 24.23485
550 1 1 46.48200 0.00000 25.44660
551 1 1 47.18160 0.00000 26.65834
552 1 1 46.48200 0.00000 27.87008
553 1 1 47.18160 0.00000 29.08183
554 1 1 46.48200 0.00000 30.29357
555 1 1 47.18160 0.00000 31.50531
556 1 1 46.48200 0.00000 32.71705
557 1 1 47.18160 0.00000 33.92880
558 1 1 46.48200 0.00000 35.14054
559 1 1 47.18160 0.00000 36.35228
560 1 1 46.48200 0.00000 37.56403
561 1 1 47.18160 0.00000 38.77577
562 1 1 46.48200 0.00000 39.98751
563 1 1 47.18160 0.00000 41.19925
564 1 1 46.48200 0.00000 42.41100
565 1 1 47.18160 0.00000 43.62274
566 1 1 46.48200 0.00000 44.83448
567 1 1 47.18160 0.00000 46.04622
568 1 1 46.48200 0.00000 47.25797
569 1 1 47.18160 0.00000 48.46971
570 1 1 46.48200 0.00000 49.68145
571 1 1 48.58080 0.00000 4.84697
572 1 1 49.28040 0.00000 6.05871
573 1 1 48.58080 0.00000 7.27046
574 1 1 49.28040 0.00000 8.48220
575 1 1 48.58080 0.00000 9.69394
576 1 1 49.28040 0.00000 10.90568
577 1 1 48.58080 0.00000 12.11743
578 1 1 49.28040 0.00000 13.32917
579 1 1 48.58080 0.00000 14.54091
580 1 1 49.28040 0.00000 15.75266
581 1 1 48.58080 0.00000 16.96440
582 1 1 49.28040 0.00000 18.17614
583 1 1 48.58080 0.00000 19.38788
584 1 1 49.28040 0.00000 20.59963
585 1 1 48.58080 0.00000 21.81137
586 1 1 49.28040 0.00000 23.02311
587 1 1 48.58080 0.00000 24.23485
588 1 1 49.28040 0.00000 25.44660
589 1 1 48.58080 0.00000 26.65834
590 1 1 49.28040 0.00000 27.87008
591 1 1 48.58080 0.00000 29.08183
592 1 1 49.28040 0.00000 30.29357
593 1 1 48.58080 0.00000 31.50531
594 1 1 49.28040 0.00000 32.71705
595 1 1 48.58080 0.00000 33.92880
596 1 1 49.28040 0.00000 35.14054
597 1 1 48.58080 0.00000 36.35228
598 1 1 49.28040 0.00000 37.56403
599 1 1 48.58080 0.00000 38.77577
600 1 1 49.28040 0.00000 39.98751
601 1 1 48.58080 0.00000 41.19925
602 1 1 49.28040 0.00000 42.41100
603 1 1 48.58080 0.00000 43.62274
604 1 1 49.28040 0.00000 44.83448
605 1 1 48.58080 0.00000 46.04622
606 1 1 49.28040 0.00000 47.25797
607 1 1 48.58080 0.00000 48.46971
608 1 1 49.28040 0.00000 49.68145
609 1 1 51.37920 0.00000 4.84697
610 1 1 50.67960 0.00000 6.05871
611 1 1 51.37920 0.00000 7.27046
612 1 1 50.67960 0.00000 8.48220
613 1 1 51.37920 0.00000 9.69394
614 1 1 50.67960 0.00000 10.90568
615 1 1 51.37920 0.00000 12.11743
616 1 1 50.67960 0.00000 13.32917
617 1 1 51.37920 0.00000 14.54091
618 1 1 50.67960 0.00000 15.75266
619 1 1 51.37920 0.00000 16.96440
620 1 1 50.67960 0.00000 18.17614
621 1 1 51.37920 0.00000 19.38788
622 1 1 50.67960 0.00000 20.59963
623 1 1 51.37920 0.00000 21.81137
624 1 1 50.67960 0.00000 23.02311
625 1 1 51.37920 0.00000 24.23485
626 1 1 50.67960 0.00000 25.44660
627 1 1 51.37920 0.00000 26.65834
628 1 1 50.67960 0.00000 27.87008
629 1 1 51.37920 0.00000 29.08183
630 1 1 50.67960 0.00000 30.29357
631 1 1 51.37920 0.00000 31.50531
632 1 1 50.67960 0.00000 32.71705
633 1 1 51.37920 0.00000 33.92880
634 1 1 50.67960 0.00000 35.14054
635 1 1 51.37920 0.00000 36.35228
636 1 1 50.67960 0.00000 37.56403
637 1 1 51.37920 0.00000 38.77577
638 1 1 50.67960 0.00000 39.98751
639 1 1 51.37920 0.00000 41.19925
640 1 1 50.67960 0.00000 42.41100
641 1 1 51.37920 0.00000 43.62274
642 1 1 50.67960 0.00000 44.83448
643 1 1 51.37920 0.00000 46.04622
644 1 1 50.67960 0.00000 47.25797
645 1 1 51.37920 0.00000 48.46971
646 1 1 50.67960 0.00000 49.68145
647 1 1 52.77840 0.00000 4.84697
648 1 1 53.47800 0.00000 6.05871
649 1 1 52.77840 0.00000 7.27046
650 1 1 53.47800 0.00000 8.48220
651 1 1 52.77840 0.00000 9.69394
652 1 1 53.47800 0.00000 10.90568
653 1 1 52.77840 0.00000 12.11743
654 1 1 53.47800 0.00000 13.32917
655 1 1 52.77840 0.00000 14.54091
656 1 1 53.47800 0.00000 15.75266
657 1 1 52.77840 0.00000 16.96440
658 1 1 53.47800 0.00000 18.17614
659 1 1 52.77840 0.00000 19.38788
660 1 1 53.47800 0.00000 20.59963
661 1 1 52.77840 0.00000 21.81137
662 1 1 53.47800 0.00000 23.02311
663 1 1 52.77840 0.00000 24.23485
664 1 1 53.47800 0.00000 25.44660
665 1 1 52.77840 0.00000 26.65834
666 1 1 53.47800 0.00000 27.87008
667 1 1 52.77840 0.00000 29.08183
668 1 1 53.47800 0.00000 30.29357
669 1 1 52.77840 0.00000 31.50531
670 1 1 53.47800 0.00000 32.71705
671 1 1 52.77840 0.00000 33.92880
672 1 1 53.47800 0.00000 35.14054
673 1 1 52.77840 0.00000 36.35228
674 1 1 53.47800 0.00000 37.56403
675 1 1 52.77840 0.00000 38.77577
676 1 1 53.47800 0.00000 39.98751
677 1 1 52.77840 0.00000 41.19925
678 1 1 53.47800 0.00000 42.41100
679 1 1 52.77840 0.00000 43.62274
680 1 1 53.47800 0.00000 44.83448
681 1 1 52.77840 0.00000 46.04622
682 1 1 53.47800 0.00000 47.25797
683 1 1 52.77840 0.00000 48.46971
684 1 1 53.47800 0.00000 49.68145
685 1 1 55.57680 0.00000 4.84697
686 1 1 54.87720 0.00000 6.05871
687 1 1 55.57680 0.00000 7.27046
688 1 1 54.87720 0.00000 8.48220
689 1 1 55.57680 0.00000 9.69394
690 1 1 54.87720 0.00000 10.90568
691 1 1 55.57680 0.00000 12.11743
692 1 1 54.87720 0.00000 13.32917
693 1 1 55.57680 0.00000 14.54091
694 1 1 54.87720 0.00000 15.75266
695 1 1 55.57680 0.00000 16.96440
696 1 1 54.87720 0.00000 18.17614
697 1 1 55.57680 0.00000 19.38788
698 1 1 54.87720 0.00000 20.59963
699 1 1 55.57680 0.00000 21.81137
700 1 1 54.87720 0.00000 23.02311
701 1 1 55.57680 0.00000 24.23485
702 1 1 54.87720 0.00000 25.44660
703 1 1 55.57680 0.00000 26.65834
704 1 1 54.87720 0.00000 27.87008
705 1 1 55.57680 0.00000 29.08183
706 1 1 54.87720 0.00000 30.29357
707 1 1 55.57680 0.00000 31.50531
708 1 1 54.87720 0.00000 32.71705
709 1 1 55.57680 0.00000 33.92880
710 1 1 54.87720 0.00000 35.14054
711 1 1 55.57680 0.00000 36.35228
712 1 1 54.87720 0.00000 37.56403
713 1 1 55.57680 0.00000 38.77577
714 1 1 54.87720 0.00000 39.98751
715 1 1 55.57680 0.00000 41.19925
716 1 1 54.87720 0.00000 42.41100
717 1 1 55.57680 0.00000 43.62274
718 1 1 54.87720 0.00000 44.83448
719 1 1 55.57680 0.00000 46.04622
720 1 1 54.87720 0.00000 47.25797
721 1 1 55.57680 0.00000 48.46971
722 1 1 54.87720 0.00000 49.68145
723 2 1 15.00000 0.00000 0.00000
724 2 1 15.69960 0.00000 1.21174
725 2 1 15.00000 0.00000 2.42349
726 2 1 15.69960 0.00000 3.63523
727 2 1 15.00000 0.00000 4.84697
728 2 1 15.69960 0.00000 6.05871
729 2 1 15.00000 0.00000 7.27046
730 2 1 15.69960 0.00000 8.48220
731 2 1 15.00000 0.00000 9.69394
732 2 1 15.69960 0.00000 10.90568
733 2 1 15.00000 0.00000 12.11743
734 2 1 15.69960 0.00000 13.32917
735 2 1 15.00000 0.00000 14.54091
736 2 1 15.69960 0.00000 15.75266
737 2 1 15.00000 0.00000 16.96440
738 2 1 15.69960 0.00000 18.17614
739 2 1 15.00000 0.00000 19.38788
740 2 1 15.69960 0.00000 20.59963
741 2 1 15.00000 0.00000 21.81137
742 2 1 15.69960 0.00000 23.02311
743 2 1 15.00000 0.00000 24.23485
744 2 1 15.69960 0.00000 25.44660
745 2 1 15.00000 0.00000 26.65834
746 2 1 15.69960 0.00000 27.87008
747 2 1 15.00000 0.00000 29.08183
748 2 1 15.69960 0.00000 30.29357
749 2 1 15.00000 0.00000 31.50531
750 2 1 15.69960 0.00000 32.71705
751 2 1 15.00000 0.00000 33.92880
752 2 1 15.69960 0.00000 35.14054
753 2 1 15.00000 0.00000 36.35228
754 2 1 15.69960 0.00000 37.56403
755 2 1 15.00000 0.00000 38.77577
756 2 1 15.69960 0.00000 39.98751
757 2 1 15.00000 0.00000 41.19925
758 2 1 15.69960 0.00000 42.41100
759 2 1 15.00000 0.00000 43.62274
760 2 1 15.69960 0.00000 44.83448
761 2 1 15.00000 0.00000 46.04622
762 2 1 15.69960 0.00000 47.25797
763 2 1 15.00000 0.00000 48.46971
764 2 1 15.69960 0.00000 49.68145
765 2 1 15.00000 0.00000 50.89320
766 2 1 15.69960 0.00000 52.10494
767 2 1 15.00000 0.00000 53.31668
768 2 1 15.69960 0.00000 54.52842
769 2 1 17.09880 0.00000 1.21174
770 2 1 17.79840 0.00000 2.42349
771 2 1 17.09880 0.00000 3.63523
772 2 1 17.79840 0.00000 50.89320
773 2 1 17.09880 0.00000 52.10494
774 2 1 17.79840 0.00000 53.31668
775 2 1 17.09880 0.00000 54.52842
776 2 1 17.79840 0.00000 -0.00000
777 2 1 19.19760 0.00000 0.00000
778 2 1 19.89720 0.00000 1.21174
779 2 1 19.19760 0.00000 2.42349
780 2 1 19.89720 0.00000 3.63523
781 2 1 19.19760 0.00000 50.89320
782 2 1 19.89720 0.00000 52.10494
783 2 1 19.19760 0.00000 53.31668
784 2 1 19.89720 0.00000 54.52842
785 2 1 21.29640 0.00000 1.21174
786 2 1 21.99600 0.00000 2.42349
787 2 1 21.29640 0.00000 3.63523
788 2 1 21.99600 0.00000 50.89320
789 2 1 21.29640 0.00000 52.10494
790 2 1 21.99600 0.00000 53.31668
791 2 1 21.29640 0.00000 54.52842
792 2 1 21.99600 0.00000 -0.00000
793 2 1 23.39520 0.00000 0.00000
794 2 1 24.09480 0.00000 1.21174
795 2 1 23.39520 0.00000 2.42349
796 2 1 24.09480 0.00000 3.63523
797 2 1 23.39520 0.00000 50.89320
798 2 1 24.09480 0.00000 52.10494
799 2 1 23.39520 0.00000 53.31668
800 2 1 24.09480 0.00000 54.52842
801 2 1 25.49400 0.00000 1.21174
802 2 1 26.19360 0.00000 2.42349
803 2 1 25.49400 0.00000 3.63523
804 2 1 26.19360 0.00000 50.89320
805 2 1 25.49400 0.00000 52.10494
806 2 1 26.19360 0.00000 53.31668
807 2 1 25.49400 0.00000 54.52842
808 2 1 26.19360 0.00000 -0.00000
809 2 1 27.59280 0.00000 0.00000
810 2 1 28.29240 0.00000 1.21174
811 2 1 27.59280 0.00000 2.42349
812 2 1 28.29240 0.00000 3.63523
813 2 1 27.59280 0.00000 50.89320
814 2 1 28.29240 0.00000 52.10494
815 2 1 27.59280 0.00000 53.31668
816 2 1 28.29240 0.00000 54.52842
817 2 1 29.69160 0.00000 1.21174
818 2 1 30.39120 0.00000 2.42349
819 2 1 29.69160 0.00000 3.63523
820 2 1 30.39120 0.00000 50.89320
821 2 1 29.69160 0.00000 52.10494
822 2 1 30.39120 0.00000 53.31668
823 2 1 29.69160 0.00000 54.52842
824 2 1 30.39120 0.00000 -0.00000
825 2 1 31.79040 0.00000 0.00000
826 2 1 32.49000 0.00000 1.21174
827 2 1 31.79040 0.00000 2.42349
828 2 1 32.49000 0.00000 3.63523
829 2 1 31.79040 0.00000 50.89320
830 2 1 32.49000 0.00000 52.10494
831 2 1 31.79040 0.00000 53.31668
832 2 1 32.49000 0.00000 54.52842
833 2 1 33.88920 0.00000 1.21174
834 2 1 34.58880 0.00000 2.42349
835 2 1 33.88920 0.00000 3.63523
836 2 1 34.58880 0.00000 50.89320
837 2 1 33.88920 0.00000 52.10494
838 2 1 34.58880 0.00000 53.31668
839 2 1 33.88920 0.00000 54.52842
840 2 1 34.58880 0.00000 -0.00000
841 2 1 35.98800 0.00000 0.00000
842 2 1 36.68760 0.00000 1.21174
843 2 1 35.98800 0.00000 2.42349
844 2 1 36.68760 0.00000 3.63523
845 2 1 35.98800 0.00000 50.89320
846 2 1 36.68760 0.00000 52.10494
847 2 1 35.98800 0.00000 53.31668
848 2 1 36.68760 0.00000 54.52842
849 2 1 38.08680 0.00000 1.21174
850 2 1 38.78640 0.00000 2.42349
851 2 1 38.08680 0.00000 3.63523
852 2 1 38.78640 0.00000 50.89320
853 2 1 38.08680 0.00000 52.10494
854 2 1 38.78640 0.00000 53.31668
855 2 1 38.08680 0.00000 54.52842
856 2 1 38.78640 0.00000 -0.00000
857 2 1 40.18560 0.00000 0.00000
858 2 1 40.88520 0.00000 1.21174
859 2 1 40.18560 0.00000 2.42349
860 2 1 40.88520 0.00000 3.63523
861 2 1 40.18560 0.00000 50.89320
862 2 1 40.88520 0.00000 52.10494
863 2 1 40.18560 0.00000 53.31668
864 2 1 40.88520 0.00000 54.52842
865 2 1 42.28440 0.00000 1.21174
866 2 1 42.98400 0.00000 2.42349
867 2 1 42.28440 0.00000 3.63523
868 2 1 42.98400 0.00000 50.89320
869 2 1 42.28440 0.00000 52.10494
870 2 1 42.98400 0.00000 53.31668
871 2 1 42.28440 0.00000 54.52842
872 2 1 42.98400 0.00000 -0.00000
873 2 1 44.38320 0.00000 0.00000
874 2 1 45.08280 0.00000 1.21174
875 2 1 44.38320 0.00000 2.42349
876 2 1 45.08280 0.00000 3.63523
877 2 1 44.38320 0.00000 50.89320
878 2 1 45.08280 0.00000 52.10494
879 2 1 44.38320 0.00000 53.31668
880 2 1 45.08280 0.00000 54.52842
881 2 1 46.48200 0.00000 1.21174
882 2 1 47.18160 0.00000 2.42349
883 2 1 46.48200 0.00000 3.63523
884 2 1 47.18160 0.00000 50.89320
885 2 1 46.48200 0.00000 52.10494
886 2 1 47.18160 0.00000 53.31668
887 2 1 46.48200 0.00000 54.52842
888 2 1 47.18160 0.00000 -0.00000
889 2 1 48.58080 0.00000 0.00000
890 2 1 49.28040 0.00000 1.21174
891 2 1 48.58080 0.00000 2.42349
892 2 1 49.28040 0.00000 3.63523
893 2 1 48.58080 0.00000 50.89320
894 2 1 49.28040 0.00000 52.10494
895 2 1 48.58080 0.00000 53.31668
896 2 1 49.28040 0.00000 54.52842
897 2 1 50.67960 0.00000 1.21174
898 2 1 51.37920 0.00000 2.42349
899 2 1 50.67960 0.00000 3.63523
900 2 1 51.37920 0.00000 50.89320
901 2 1 50.67960 0.00000 52.10494
902 2 1 51.37920 0.00000 53.31668
903 2 1 50.67960 0.00000 54.52842
904 2 1 51.37920 0.00000 -0.00000
905 2 1 52.77840 0.00000 0.00000
906 2 1 53.47800 0.00000 1.21174
907 2 1 52.77840 0.00000 2.42349
908 2 1 53.47800 0.00000 3.63523
909 2 1 52.77840 0.00000 50.89320
910 2 1 53.47800 0.00000 52.10494
911 2 1 52.77840 0.00000 53.31668
912 2 1 53.47800 0.00000 54.52842
913 2 1 54.87720 0.00000 1.21174
914 2 1 55.57680 0.00000 2.42349
915 2 1 54.87720 0.00000 3.63523
916 2 1 55.57680 0.00000 50.89320
917 2 1 54.87720 0.00000 52.10494
918 2 1 55.57680 0.00000 53.31668
919 2 1 54.87720 0.00000 54.52842
920 2 1 55.57680 0.00000 -0.00000
921 2 1 56.97600 0.00000 0.00000
922 2 1 57.67560 0.00000 1.21174
923 2 1 56.97600 0.00000 2.42349
924 2 1 57.67560 0.00000 3.63523
925 2 1 56.97600 0.00000 4.84697
926 2 1 57.67560 0.00000 6.05871
927 2 1 56.97600 0.00000 7.27046
928 2 1 57.67560 0.00000 8.48220
929 2 1 56.97600 0.00000 9.69394
930 2 1 57.67560 0.00000 10.90568
931 2 1 56.97600 0.00000 12.11743
932 2 1 57.67560 0.00000 13.32917
933 2 1 56.97600 0.00000 14.54091
934 2 1 57.67560 0.00000 15.75266
935 2 1 56.97600 0.00000 16.96440
936 2 1 57.67560 0.00000 18.17614
937 2 1 56.97600 0.00000 19.38788
938 2 1 57.67560 0.00000 20.59963
939 2 1 56.97600 0.00000 21.81137
940 2 1 57.67560 0.00000 23.02311
941 2 1 56.97600 0.00000 24.23485
942 2 1 57.67560 0.00000 25.44660
943 2 1 56.97600 0.00000 26.65834
944 2 1 57.67560 0.00000 27.87008
945 2 1 56.97600 0.00000 29.08183
946 2 1 57.67560 0.00000 30.29357
947 2 1 56.97600 0.00000 31.50531
948 2 1 57.67560 0.00000 32.71705
949 2 1 56.97600 0.00000 33.92880
950 2 1 57.67560 0.00000 35.14054
951 2 1 56.97600 0.00000 36.35228
952 2 1 57.67560 0.00000 37.56403
953 2 1 56.97600 0.00000 38.77577
954 2 1 57.67560 0.00000 39.98751
955 2 1 56.97600 0.00000 41.19925
956 2 1 57.67560 0.00000 42.41100
957 2 1 56.97600 0.00000 43.62274
958 2 1 57.67560 0.00000 44.83448
959 2 1 56.97600 0.00000 46.04622
960 2 1 57.67560 0.00000 47.25797
961 2 1 56.97600 0.00000 48.46971
962 2 1 57.67560 0.00000 49.68145
963 2 1 56.97600 0.00000 50.89320
964 2 1 57.67560 0.00000 52.10494
965 2 1 56.97600 0.00000 53.31668
966 2 1 57.67560 0.00000 54.52842
